    1C
    1UUSER                                                              
    1UDATE              25.january.2020                                 
    1UTIME              17:53:37                                        
    1UHOST                                                              
    1UPGM               CalculiX                                        
    1UVERSION           Version 2.16                             
    1UCOMPILETIME       Tue  7 Jan 19:57:43 CET 2020                    
    1UDIR                                                               
    1UDBN                                                               
    1UMAT    1STEEL                                                     
    2C                           321                                     1
 -1         1 1.00000E-02 1.00000E-02 0.00000E+00
 -1         2 1.00000E-02 5.00000E-03 0.00000E+00
 -1         3 1.00000E-02 5.00000E-03 1.00000E-02
 -1         4 1.00000E-02 1.00000E-02 1.00000E-02
 -1         5 5.00000E-03 1.00000E-02 0.00000E+00
 -1         6 5.00000E-03 5.00000E-03 0.00000E+00
 -1         7 5.00000E-03 5.00000E-03 1.00000E-02
 -1         8 5.00000E-03 1.00000E-02 1.00000E-02
 -1         9 1.00000E-02 7.50000E-03 0.00000E+00
 -1        10 1.00000E-02 5.00000E-03 5.00000E-03
 -1        11 1.00000E-02 7.50000E-03 1.00000E-02
 -1        12 1.00000E-02 1.00000E-02 5.00000E-03
 -1        13 7.50000E-03 1.00000E-02 0.00000E+00
 -1        14 7.50000E-03 5.00000E-03 0.00000E+00
 -1        15 7.50000E-03 5.00000E-03 1.00000E-02
 -1        16 7.50000E-03 1.00000E-02 1.00000E-02
 -1        17 5.00000E-03 7.50000E-03 0.00000E+00
 -1        18 5.00000E-03 5.00000E-03 5.00000E-03
 -1        19 5.00000E-03 7.50000E-03 1.00000E-02
 -1        20 5.00000E-03 1.00000E-02 5.00000E-03
 -1        21 1.00000E-02 5.00000E-03 2.00000E-02
 -1        22 1.00000E-02 1.00000E-02 2.00000E-02
 -1        23 5.00000E-03 5.00000E-03 2.00000E-02
 -1        24 5.00000E-03 1.00000E-02 2.00000E-02
 -1        25 1.00000E-02 5.00000E-03 1.50000E-02
 -1        26 1.00000E-02 7.50000E-03 2.00000E-02
 -1        27 1.00000E-02 1.00000E-02 1.50000E-02
 -1        28 7.50000E-03 5.00000E-03 2.00000E-02
 -1        29 7.50000E-03 1.00000E-02 2.00000E-02
 -1        30 5.00000E-03 5.00000E-03 1.50000E-02
 -1        31 5.00000E-03 7.50000E-03 2.00000E-02
 -1        32 5.00000E-03 1.00000E-02 1.50000E-02
 -1        33 1.00000E-02 5.00000E-03 3.00000E-02
 -1        34 1.00000E-02 1.00000E-02 3.00000E-02
 -1        35 5.00000E-03 5.00000E-03 3.00000E-02
 -1        36 5.00000E-03 1.00000E-02 3.00000E-02
 -1        37 1.00000E-02 5.00000E-03 2.50000E-02
 -1        38 1.00000E-02 7.50000E-03 3.00000E-02
 -1        39 1.00000E-02 1.00000E-02 2.50000E-02
 -1        40 7.50000E-03 5.00000E-03 3.00000E-02
 -1        41 7.50000E-03 1.00000E-02 3.00000E-02
 -1        42 5.00000E-03 5.00000E-03 2.50000E-02
 -1        43 5.00000E-03 7.50000E-03 3.00000E-02
 -1        44 5.00000E-03 1.00000E-02 2.50000E-02
 -1        45 1.00000E-02 5.00000E-03 4.00000E-02
 -1        46 1.00000E-02 1.00000E-02 4.00000E-02
 -1        47 5.00000E-03 5.00000E-03 4.00000E-02
 -1        48 5.00000E-03 1.00000E-02 4.00000E-02
 -1        49 1.00000E-02 5.00000E-03 3.50000E-02
 -1        50 1.00000E-02 7.50000E-03 4.00000E-02
 -1        51 1.00000E-02 1.00000E-02 3.50000E-02
 -1        52 7.50000E-03 5.00000E-03 4.00000E-02
 -1        53 7.50000E-03 1.00000E-02 4.00000E-02
 -1        54 5.00000E-03 5.00000E-03 3.50000E-02
 -1        55 5.00000E-03 7.50000E-03 4.00000E-02
 -1        56 5.00000E-03 1.00000E-02 3.50000E-02
 -1        57 1.00000E-02 5.00000E-03 5.00000E-02
 -1        58 1.00000E-02 1.00000E-02 5.00000E-02
 -1        59 5.00000E-03 5.00000E-03 5.00000E-02
 -1        60 5.00000E-03 1.00000E-02 5.00000E-02
 -1        61 1.00000E-02 5.00000E-03 4.50000E-02
 -1        62 1.00000E-02 7.50000E-03 5.00000E-02
 -1        63 1.00000E-02 1.00000E-02 4.50000E-02
 -1        64 7.50000E-03 5.00000E-03 5.00000E-02
 -1        65 7.50000E-03 1.00000E-02 5.00000E-02
 -1        66 5.00000E-03 5.00000E-03 4.50000E-02
 -1        67 5.00000E-03 7.50000E-03 5.00000E-02
 -1        68 5.00000E-03 1.00000E-02 4.50000E-02
 -1        69 1.00000E-02 5.00000E-03 6.00000E-02
 -1        70 1.00000E-02 1.00000E-02 6.00000E-02
 -1        71 5.00000E-03 5.00000E-03 6.00000E-02
 -1        72 5.00000E-03 1.00000E-02 6.00000E-02
 -1        73 1.00000E-02 5.00000E-03 5.50000E-02
 -1        74 1.00000E-02 7.50000E-03 6.00000E-02
 -1        75 1.00000E-02 1.00000E-02 5.50000E-02
 -1        76 7.50000E-03 5.00000E-03 6.00000E-02
 -1        77 7.50000E-03 1.00000E-02 6.00000E-02
 -1        78 5.00000E-03 5.00000E-03 5.50000E-02
 -1        79 5.00000E-03 7.50000E-03 6.00000E-02
 -1        80 5.00000E-03 1.00000E-02 5.50000E-02
 -1        81 1.00000E-02 5.00000E-03 7.00000E-02
 -1        82 1.00000E-02 1.00000E-02 7.00000E-02
 -1        83 5.00000E-03 5.00000E-03 7.00000E-02
 -1        84 5.00000E-03 1.00000E-02 7.00000E-02
 -1        85 1.00000E-02 5.00000E-03 6.50000E-02
 -1        86 1.00000E-02 7.50000E-03 7.00000E-02
 -1        87 1.00000E-02 1.00000E-02 6.50000E-02
 -1        88 7.50000E-03 5.00000E-03 7.00000E-02
 -1        89 7.50000E-03 1.00000E-02 7.00000E-02
 -1        90 5.00000E-03 5.00000E-03 6.50000E-02
 -1        91 5.00000E-03 7.50000E-03 7.00000E-02
 -1        92 5.00000E-03 1.00000E-02 6.50000E-02
 -1        93 1.00000E-02 5.00000E-03 8.00000E-02
 -1        94 1.00000E-02 1.00000E-02 8.00000E-02
 -1        95 5.00000E-03 5.00000E-03 8.00000E-02
 -1        96 5.00000E-03 1.00000E-02 8.00000E-02
 -1        97 1.00000E-02 5.00000E-03 7.50000E-02
 -1        98 1.00000E-02 7.50000E-03 8.00000E-02
 -1        99 1.00000E-02 1.00000E-02 7.50000E-02
 -1       100 7.50000E-03 5.00000E-03 8.00000E-02
 -1       101 7.50000E-03 1.00000E-02 8.00000E-02
 -1       102 5.00000E-03 5.00000E-03 7.50000E-02
 -1       103 5.00000E-03 7.50000E-03 8.00000E-02
 -1       104 5.00000E-03 1.00000E-02 7.50000E-02
 -1       105 1.00000E-02 5.00000E-03 9.00000E-02
 -1       106 1.00000E-02 1.00000E-02 9.00000E-02
 -1       107 5.00000E-03 5.00000E-03 9.00000E-02
 -1       108 5.00000E-03 1.00000E-02 9.00000E-02
 -1       109 1.00000E-02 5.00000E-03 8.50000E-02
 -1       110 1.00000E-02 7.50000E-03 9.00000E-02
 -1       111 1.00000E-02 1.00000E-02 8.50000E-02
 -1       112 7.50000E-03 5.00000E-03 9.00000E-02
 -1       113 7.50000E-03 1.00000E-02 9.00000E-02
 -1       114 5.00000E-03 5.00000E-03 8.50000E-02
 -1       115 5.00000E-03 7.50000E-03 9.00000E-02
 -1       116 5.00000E-03 1.00000E-02 8.50000E-02
 -1       117 1.00000E-02 5.00000E-03 1.00000E-01
 -1       118 1.00000E-02 1.00000E-02 1.00000E-01
 -1       119 5.00000E-03 5.00000E-03 1.00000E-01
 -1       120 5.00000E-03 1.00000E-02 1.00000E-01
 -1       121 1.00000E-02 5.00000E-03 9.50000E-02
 -1       122 1.00000E-02 7.50000E-03 1.00000E-01
 -1       123 1.00000E-02 1.00000E-02 9.50000E-02
 -1       124 7.50000E-03 5.00000E-03 1.00000E-01
 -1       125 7.50000E-03 1.00000E-02 1.00000E-01
 -1       126 5.00000E-03 5.00000E-03 9.50000E-02
 -1       127 5.00000E-03 7.50000E-03 1.00000E-01
 -1       128 5.00000E-03 1.00000E-02 9.50000E-02
 -1       129 0.00000E+00 1.00000E-02 0.00000E+00
 -1       130 0.00000E+00 5.00000E-03 0.00000E+00
 -1       131 0.00000E+00 5.00000E-03 1.00000E-02
 -1       132 0.00000E+00 1.00000E-02 1.00000E-02
 -1       133 2.50000E-03 1.00000E-02 0.00000E+00
 -1       134 2.50000E-03 5.00000E-03 0.00000E+00
 -1       135 2.50000E-03 5.00000E-03 1.00000E-02
 -1       136 2.50000E-03 1.00000E-02 1.00000E-02
 -1       137 0.00000E+00 7.50000E-03 0.00000E+00
 -1       138 0.00000E+00 5.00000E-03 5.00000E-03
 -1       139 0.00000E+00 7.50000E-03 1.00000E-02
 -1       140 0.00000E+00 1.00000E-02 5.00000E-03
 -1       141 0.00000E+00 5.00000E-03 2.00000E-02
 -1       142 0.00000E+00 1.00000E-02 2.00000E-02
 -1       143 2.50000E-03 5.00000E-03 2.00000E-02
 -1       144 2.50000E-03 1.00000E-02 2.00000E-02
 -1       145 0.00000E+00 5.00000E-03 1.50000E-02
 -1       146 0.00000E+00 7.50000E-03 2.00000E-02
 -1       147 0.00000E+00 1.00000E-02 1.50000E-02
 -1       148 0.00000E+00 5.00000E-03 3.00000E-02
 -1       149 0.00000E+00 1.00000E-02 3.00000E-02
 -1       150 2.50000E-03 5.00000E-03 3.00000E-02
 -1       151 2.50000E-03 1.00000E-02 3.00000E-02
 -1       152 0.00000E+00 5.00000E-03 2.50000E-02
 -1       153 0.00000E+00 7.50000E-03 3.00000E-02
 -1       154 0.00000E+00 1.00000E-02 2.50000E-02
 -1       155 0.00000E+00 5.00000E-03 4.00000E-02
 -1       156 0.00000E+00 1.00000E-02 4.00000E-02
 -1       157 2.50000E-03 5.00000E-03 4.00000E-02
 -1       158 2.50000E-03 1.00000E-02 4.00000E-02
 -1       159 0.00000E+00 5.00000E-03 3.50000E-02
 -1       160 0.00000E+00 7.50000E-03 4.00000E-02
 -1       161 0.00000E+00 1.00000E-02 3.50000E-02
 -1       162 0.00000E+00 5.00000E-03 5.00000E-02
 -1       163 0.00000E+00 1.00000E-02 5.00000E-02
 -1       164 2.50000E-03 5.00000E-03 5.00000E-02
 -1       165 2.50000E-03 1.00000E-02 5.00000E-02
 -1       166 0.00000E+00 5.00000E-03 4.50000E-02
 -1       167 0.00000E+00 7.50000E-03 5.00000E-02
 -1       168 0.00000E+00 1.00000E-02 4.50000E-02
 -1       169 0.00000E+00 5.00000E-03 6.00000E-02
 -1       170 0.00000E+00 1.00000E-02 6.00000E-02
 -1       171 2.50000E-03 5.00000E-03 6.00000E-02
 -1       172 2.50000E-03 1.00000E-02 6.00000E-02
 -1       173 0.00000E+00 5.00000E-03 5.50000E-02
 -1       174 0.00000E+00 7.50000E-03 6.00000E-02
 -1       175 0.00000E+00 1.00000E-02 5.50000E-02
 -1       176 0.00000E+00 5.00000E-03 7.00000E-02
 -1       177 0.00000E+00 1.00000E-02 7.00000E-02
 -1       178 2.50000E-03 5.00000E-03 7.00000E-02
 -1       179 2.50000E-03 1.00000E-02 7.00000E-02
 -1       180 0.00000E+00 5.00000E-03 6.50000E-02
 -1       181 0.00000E+00 7.50000E-03 7.00000E-02
 -1       182 0.00000E+00 1.00000E-02 6.50000E-02
 -1       183 0.00000E+00 5.00000E-03 8.00000E-02
 -1       184 0.00000E+00 1.00000E-02 8.00000E-02
 -1       185 2.50000E-03 5.00000E-03 8.00000E-02
 -1       186 2.50000E-03 1.00000E-02 8.00000E-02
 -1       187 0.00000E+00 5.00000E-03 7.50000E-02
 -1       188 0.00000E+00 7.50000E-03 8.00000E-02
 -1       189 0.00000E+00 1.00000E-02 7.50000E-02
 -1       190 0.00000E+00 5.00000E-03 9.00000E-02
 -1       191 0.00000E+00 1.00000E-02 9.00000E-02
 -1       192 2.50000E-03 5.00000E-03 9.00000E-02
 -1       193 2.50000E-03 1.00000E-02 9.00000E-02
 -1       194 0.00000E+00 5.00000E-03 8.50000E-02
 -1       195 0.00000E+00 7.50000E-03 9.00000E-02
 -1       196 0.00000E+00 1.00000E-02 8.50000E-02
 -1       197 0.00000E+00 5.00000E-03 1.00000E-01
 -1       198 0.00000E+00 1.00000E-02 1.00000E-01
 -1       199 2.50000E-03 5.00000E-03 1.00000E-01
 -1       200 2.50000E-03 1.00000E-02 1.00000E-01
 -1       201 0.00000E+00 5.00000E-03 9.50000E-02
 -1       202 0.00000E+00 7.50000E-03 1.00000E-01
 -1       203 0.00000E+00 1.00000E-02 9.50000E-02
 -1       204 1.00000E-02 0.00000E+00 0.00000E+00
 -1       205 1.00000E-02 0.00000E+00 1.00000E-02
 -1       206 5.00000E-03 0.00000E+00 0.00000E+00
 -1       207 5.00000E-03 0.00000E+00 1.00000E-02
 -1       208 1.00000E-02 2.50000E-03 0.00000E+00
 -1       209 1.00000E-02 0.00000E+00 5.00000E-03
 -1       210 1.00000E-02 2.50000E-03 1.00000E-02
 -1       211 7.50000E-03 0.00000E+00 0.00000E+00
 -1       212 7.50000E-03 0.00000E+00 1.00000E-02
 -1       213 5.00000E-03 2.50000E-03 0.00000E+00
 -1       214 5.00000E-03 0.00000E+00 5.00000E-03
 -1       215 5.00000E-03 2.50000E-03 1.00000E-02
 -1       216 1.00000E-02 0.00000E+00 2.00000E-02
 -1       217 5.00000E-03 0.00000E+00 2.00000E-02
 -1       218 1.00000E-02 0.00000E+00 1.50000E-02
 -1       219 1.00000E-02 2.50000E-03 2.00000E-02
 -1       220 7.50000E-03 0.00000E+00 2.00000E-02
 -1       221 5.00000E-03 0.00000E+00 1.50000E-02
 -1       222 5.00000E-03 2.50000E-03 2.00000E-02
 -1       223 1.00000E-02 0.00000E+00 3.00000E-02
 -1       224 5.00000E-03 0.00000E+00 3.00000E-02
 -1       225 1.00000E-02 0.00000E+00 2.50000E-02
 -1       226 1.00000E-02 2.50000E-03 3.00000E-02
 -1       227 7.50000E-03 0.00000E+00 3.00000E-02
 -1       228 5.00000E-03 0.00000E+00 2.50000E-02
 -1       229 5.00000E-03 2.50000E-03 3.00000E-02
 -1       230 1.00000E-02 0.00000E+00 4.00000E-02
 -1       231 5.00000E-03 0.00000E+00 4.00000E-02
 -1       232 1.00000E-02 0.00000E+00 3.50000E-02
 -1       233 1.00000E-02 2.50000E-03 4.00000E-02
 -1       234 7.50000E-03 0.00000E+00 4.00000E-02
 -1       235 5.00000E-03 0.00000E+00 3.50000E-02
 -1       236 5.00000E-03 2.50000E-03 4.00000E-02
 -1       237 1.00000E-02 0.00000E+00 5.00000E-02
 -1       238 5.00000E-03 0.00000E+00 5.00000E-02
 -1       239 1.00000E-02 0.00000E+00 4.50000E-02
 -1       240 1.00000E-02 2.50000E-03 5.00000E-02
 -1       241 7.50000E-03 0.00000E+00 5.00000E-02
 -1       242 5.00000E-03 0.00000E+00 4.50000E-02
 -1       243 5.00000E-03 2.50000E-03 5.00000E-02
 -1       244 1.00000E-02 0.00000E+00 6.00000E-02
 -1       245 5.00000E-03 0.00000E+00 6.00000E-02
 -1       246 1.00000E-02 0.00000E+00 5.50000E-02
 -1       247 1.00000E-02 2.50000E-03 6.00000E-02
 -1       248 7.50000E-03 0.00000E+00 6.00000E-02
 -1       249 5.00000E-03 0.00000E+00 5.50000E-02
 -1       250 5.00000E-03 2.50000E-03 6.00000E-02
 -1       251 1.00000E-02 0.00000E+00 7.00000E-02
 -1       252 5.00000E-03 0.00000E+00 7.00000E-02
 -1       253 1.00000E-02 0.00000E+00 6.50000E-02
 -1       254 1.00000E-02 2.50000E-03 7.00000E-02
 -1       255 7.50000E-03 0.00000E+00 7.00000E-02
 -1       256 5.00000E-03 0.00000E+00 6.50000E-02
 -1       257 5.00000E-03 2.50000E-03 7.00000E-02
 -1       258 1.00000E-02 0.00000E+00 8.00000E-02
 -1       259 5.00000E-03 0.00000E+00 8.00000E-02
 -1       260 1.00000E-02 0.00000E+00 7.50000E-02
 -1       261 1.00000E-02 2.50000E-03 8.00000E-02
 -1       262 7.50000E-03 0.00000E+00 8.00000E-02
 -1       263 5.00000E-03 0.00000E+00 7.50000E-02
 -1       264 5.00000E-03 2.50000E-03 8.00000E-02
 -1       265 1.00000E-02 0.00000E+00 9.00000E-02
 -1       266 5.00000E-03 0.00000E+00 9.00000E-02
 -1       267 1.00000E-02 0.00000E+00 8.50000E-02
 -1       268 1.00000E-02 2.50000E-03 9.00000E-02
 -1       269 7.50000E-03 0.00000E+00 9.00000E-02
 -1       270 5.00000E-03 0.00000E+00 8.50000E-02
 -1       271 5.00000E-03 2.50000E-03 9.00000E-02
 -1       272 1.00000E-02 0.00000E+00 1.00000E-01
 -1       273 5.00000E-03 0.00000E+00 1.00000E-01
 -1       274 1.00000E-02 0.00000E+00 9.50000E-02
 -1       275 1.00000E-02 2.50000E-03 1.00000E-01
 -1       276 7.50000E-03 0.00000E+00 1.00000E-01
 -1       277 5.00000E-03 0.00000E+00 9.50000E-02
 -1       278 5.00000E-03 2.50000E-03 1.00000E-01
 -1       279 0.00000E+00 0.00000E+00 0.00000E+00
 -1       280 0.00000E+00 0.00000E+00 1.00000E-02
 -1       281 2.50000E-03 0.00000E+00 0.00000E+00
 -1       282 2.50000E-03 0.00000E+00 1.00000E-02
 -1       283 0.00000E+00 2.50000E-03 0.00000E+00
 -1       284 0.00000E+00 0.00000E+00 5.00000E-03
 -1       285 0.00000E+00 2.50000E-03 1.00000E-02
 -1       286 0.00000E+00 0.00000E+00 2.00000E-02
 -1       287 2.50000E-03 0.00000E+00 2.00000E-02
 -1       288 0.00000E+00 0.00000E+00 1.50000E-02
 -1       289 0.00000E+00 2.50000E-03 2.00000E-02
 -1       290 0.00000E+00 0.00000E+00 3.00000E-02
 -1       291 2.50000E-03 0.00000E+00 3.00000E-02
 -1       292 0.00000E+00 0.00000E+00 2.50000E-02
 -1       293 0.00000E+00 2.50000E-03 3.00000E-02
 -1       294 0.00000E+00 0.00000E+00 4.00000E-02
 -1       295 2.50000E-03 0.00000E+00 4.00000E-02
 -1       296 0.00000E+00 0.00000E+00 3.50000E-02
 -1       297 0.00000E+00 2.50000E-03 4.00000E-02
 -1       298 0.00000E+00 0.00000E+00 5.00000E-02
 -1       299 2.50000E-03 0.00000E+00 5.00000E-02
 -1       300 0.00000E+00 0.00000E+00 4.50000E-02
 -1       301 0.00000E+00 2.50000E-03 5.00000E-02
 -1       302 0.00000E+00 0.00000E+00 6.00000E-02
 -1       303 2.50000E-03 0.00000E+00 6.00000E-02
 -1       304 0.00000E+00 0.00000E+00 5.50000E-02
 -1       305 0.00000E+00 2.50000E-03 6.00000E-02
 -1       306 0.00000E+00 0.00000E+00 7.00000E-02
 -1       307 2.50000E-03 0.00000E+00 7.00000E-02
 -1       308 0.00000E+00 0.00000E+00 6.50000E-02
 -1       309 0.00000E+00 2.50000E-03 7.00000E-02
 -1       310 0.00000E+00 0.00000E+00 8.00000E-02
 -1       311 2.50000E-03 0.00000E+00 8.00000E-02
 -1       312 0.00000E+00 0.00000E+00 7.50000E-02
 -1       313 0.00000E+00 2.50000E-03 8.00000E-02
 -1       314 0.00000E+00 0.00000E+00 9.00000E-02
 -1       315 2.50000E-03 0.00000E+00 9.00000E-02
 -1       316 0.00000E+00 0.00000E+00 8.50000E-02
 -1       317 0.00000E+00 2.50000E-03 9.00000E-02
 -1       318 0.00000E+00 0.00000E+00 1.00000E-01
 -1       319 2.50000E-03 0.00000E+00 1.00000E-01
 -1       320 0.00000E+00 0.00000E+00 9.50000E-02
 -1       321 0.00000E+00 2.50000E-03 1.00000E-01
 -3
    3C                            40                                     1
 -1         1    4    0    1
 -2         1         2         3         4         5         6         7         8         9        10
 -2        11        12        13        14        15        16        17        18        19        20
 -1         2    4    0    1
 -2         4         3        21        22         8         7        23        24        11        25
 -2        26        27        16        15        28        29        19        30        31        32
 -1         3    4    0    1
 -2        22        21        33        34        24        23        35        36        26        37
 -2        38        39        29        28        40        41        31        42        43        44
 -1         4    4    0    1
 -2        34        33        45        46        36        35        47        48        38        49
 -2        50        51        41        40        52        53        43        54        55        56
 -1         5    4    0    1
 -2        46        45        57        58        48        47        59        60        50        61
 -2        62        63        53        52        64        65        55        66        67        68
 -1         6    4    0    1
 -2        58        57        69        70        60        59        71        72        62        73
 -2        74        75        65        64        76        77        67        78        79        80
 -1         7    4    0    1
 -2        70        69        81        82        72        71        83        84        74        85
 -2        86        87        77        76        88        89        79        90        91        92
 -1         8    4    0    1
 -2        82        81        93        94        84        83        95        96        86        97
 -2        98        99        89        88       100       101        91       102       103       104
 -1         9    4    0    1
 -2        94        93       105       106        96        95       107       108        98       109
 -2       110       111       101       100       112       113       103       114       115       116
 -1        10    4    0    1
 -2       106       105       117       118       108       107       119       120       110       121
 -2       122       123       113       112       124       125       115       126       127       128
 -1        11    4    0    1
 -2         5         6         7         8       129       130       131       132        17        18
 -2        19        20       133       134       135       136       137       138       139       140
 -1        12    4    0    1
 -2         8         7        23        24       132       131       141       142        19        30
 -2        31        32       136       135       143       144       139       145       146       147
 -1        13    4    0    1
 -2        24        23        35        36       142       141       148       149        31        42
 -2        43        44       144       143       150       151       146       152       153       154
 -1        14    4    0    1
 -2        36        35        47        48       149       148       155       156        43        54
 -2        55        56       151       150       157       158       153       159       160       161
 -1        15    4    0    1
 -2        48        47        59        60       156       155       162       163        55        66
 -2        67        68       158       157       164       165       160       166       167       168
 -1        16    4    0    1
 -2        60        59        71        72       163       162       169       170        67        78
 -2        79        80       165       164       171       172       167       173       174       175
 -1        17    4    0    1
 -2        72        71        83        84       170       169       176       177        79        90
 -2        91        92       172       171       178       179       174       180       181       182
 -1        18    4    0    1
 -2        84        83        95        96       177       176       183       184        91       102
 -2       103       104       179       178       185       186       181       187       188       189
 -1        19    4    0    1
 -2        96        95       107       108       184       183       190       191       103       114
 -2       115       116       186       185       192       193       188       194       195       196
 -1        20    4    0    1
 -2       108       107       119       120       191       190       197       198       115       126
 -2       127       128       193       192       199       200       195       201       202       203
 -1        21    4    0    1
 -2         2       204       205         3         6       206       207         7       208       209
 -2       210        10        14       211       212        15       213       214       215        18
 -1        22    4    0    1
 -2         3       205       216        21         7       207       217        23       210       218
 -2       219        25        15       212       220        28       215       221       222        30
 -1        23    4    0    1
 -2        21       216       223        33        23       217       224        35       219       225
 -2       226        37        28       220       227        40       222       228       229        42
 -1        24    4    0    1
 -2        33       223       230        45        35       224       231        47       226       232
 -2       233        49        40       227       234        52       229       235       236        54
 -1        25    4    0    1
 -2        45       230       237        57        47       231       238        59       233       239
 -2       240        61        52       234       241        64       236       242       243        66
 -1        26    4    0    1
 -2        57       237       244        69        59       238       245        71       240       246
 -2       247        73        64       241       248        76       243       249       250        78
 -1        27    4    0    1
 -2        69       244       251        81        71       245       252        83       247       253
 -2       254        85        76       248       255        88       250       256       257        90
 -1        28    4    0    1
 -2        81       251       258        93        83       252       259        95       254       260
 -2       261        97        88       255       262       100       257       263       264       102
 -1        29    4    0    1
 -2        93       258       265       105        95       259       266       107       261       267
 -2       268       109       100       262       269       112       264       270       271       114
 -1        30    4    0    1
 -2       105       265       272       117       107       266       273       119       268       274
 -2       275       121       112       269       276       124       271       277       278       126
 -1        31    4    0    1
 -2         6       206       207         7       130       279       280       131       213       214
 -2       215        18       134       281       282       135       283       284       285       138
 -1        32    4    0    1
 -2         7       207       217        23       131       280       286       141       215       221
 -2       222        30       135       282       287       143       285       288       289       145
 -1        33    4    0    1
 -2        23       217       224        35       141       286       290       148       222       228
 -2       229        42       143       287       291       150       289       292       293       152
 -1        34    4    0    1
 -2        35       224       231        47       148       290       294       155       229       235
 -2       236        54       150       291       295       157       293       296       297       159
 -1        35    4    0    1
 -2        47       231       238        59       155       294       298       162       236       242
 -2       243        66       157       295       299       164       297       300       301       166
 -1        36    4    0    1
 -2        59       238       245        71       162       298       302       169       243       249
 -2       250        78       164       299       303       171       301       304       305       173
 -1        37    4    0    1
 -2        71       245       252        83       169       302       306       176       250       256
 -2       257        90       171       303       307       178       305       308       309       180
 -1        38    4    0    1
 -2        83       252       259        95       176       306       310       183       257       263
 -2       264       102       178       307       311       185       309       312       313       187
 -1        39    4    0    1
 -2        95       259       266       107       183       310       314       190       264       270
 -2       271       114       185       311       315       192       313       316       317       194
 -1        40    4    0    1
 -2       107       266       273       119       190       314       318       197       271       277
 -2       278       126       192       315       319       199       317       320       321       201
 -3
    1PSTEP                         1           1           1          
    1PGM                1.000000E+00                                  
    1PGK                2.768264E+07                                  
    1PHID                         -1                                  
    1PSUBC                         0                                  
    1PMODE                         1                                  
  100CL  101 837.3825237         321                     2    1MODAL      1
 -4  DISP        4    1
 -5  D1          1    2    1    0
 -5  D2          1    2    2    0
 -5  D3          1    2    3    0
 -5  ALL         1    2    0    0    1ALL
 -1         1 0.00000E+00 0.00000E+00 0.00000E+00
 -1         2 0.00000E+00 0.00000E+00 0.00000E+00
 -1         3 4.16355E-03-1.09715E-01-3.74889E-03
 -1         4-1.16672E-02-1.16151E-01 1.07650E-01
 -1         5 0.00000E+00 0.00000E+00 0.00000E+00
 -1         6 0.00000E+00 0.00000E+00 0.00000E+00
 -1         7 3.91501E-03-1.17347E-01 5.33766E-17
 -1         8 3.66038E-03-1.24797E-01 1.12368E-01
 -1         9 0.00000E+00 0.00000E+00 0.00000E+00
 -1        10 1.30677E-03-2.21020E-02-1.78127E-03
 -1        11-3.70244E-03-1.10282E-01 5.12982E-02
 -1        12-1.57461E-02-3.09949E-02 5.32350E-02
 -1        13 0.00000E+00 0.00000E+00 0.00000E+00
 -1        14 0.00000E+00 0.00000E+00 0.00000E+00
 -1        15 3.94763E-03-1.16077E-01-1.84748E-03
 -1        16-4.00312E-03-1.23002E-01 1.09928E-01
 -1        17 0.00000E+00 0.00000E+00 0.00000E+00
 -1        18 9.89048E-04-2.96454E-02 2.80808E-17
 -1        19 3.87263E-03-1.18325E-01 5.53757E-02
 -1        20 7.37378E-04-3.91689E-02 5.33911E-02
 -1        21 1.52734E-02-4.44224E-01-7.07494E-03
 -1        22 1.28444E-03-4.50428E-01 2.04751E-01
 -1        23 1.50476E-02-4.51033E-01 3.84783E-16
 -1        24 1.48205E-02-4.57800E-01 2.12062E-01
 -1        25 8.89370E-03-2.51419E-01-5.47379E-03
 -1        26 8.33699E-03-4.45772E-01 9.81031E-02
 -1        27-6.30214E-03-2.58610E-01 1.58287E-01
 -1        28 1.51096E-02-4.49207E-01-3.51892E-03
 -1        29 7.98673E-03-4.55703E-01 2.08611E-01
 -1        30 8.63774E-03-2.58905E-01 1.77457E-16
 -1        31 1.49867E-02-4.52890E-01 1.05475E-01
 -1        32 8.38799E-03-2.66577E-01 1.64070E-01
 -1        33 3.24794E-02-9.62332E-01-9.84125E-03
 -1        34 2.11123E-02-9.67554E-01 2.84859E-01
 -1        35 3.22924E-02-9.67923E-01 1.09916E-15
 -1        36 3.21059E-02-9.73528E-01 2.94979E-01
 -1        37 2.31865E-02-6.82528E-01-8.52310E-03
 -1        38 2.68400E-02-9.63503E-01 1.36864E-01
 -1        39 1.05205E-02-6.88358E-01 2.46672E-01
 -1        40 3.23376E-02-9.66562E-01-4.90286E-03
 -1        41 2.65647E-02-9.71970E-01 2.90077E-01
 -1        42 2.29791E-02-6.88768E-01 8.33518E-16
 -1        43 3.22470E-02-9.69278E-01 1.46957E-01
 -1        44 2.27709E-02-6.94985E-01 2.55469E-01
 -1        45 5.46547E-02-1.62946E+00-1.20563E-02
 -1        46 4.57687E-02-1.63354E+00 3.49060E-01
 -1        47 5.45090E-02-1.63384E+00 1.18395E-15
 -1        48 5.43631E-02-1.63820E+00 3.61373E-01
 -1        49 4.30145E-02-1.27934E+00-1.10137E-02
 -1        50 5.02476E-02-1.63042E+00 1.67863E-01
 -1        51 3.28966E-02-1.28400E+00 3.18839E-01
 -1        52 5.45459E-02-1.63273E+00-6.01081E-03
 -1        53 5.00287E-02-1.63696E+00 3.55373E-01
 -1        54 4.28482E-02-1.28432E+00 1.23339E-15
 -1        55 5.44722E-02-1.63494E+00 1.80166E-01
 -1        56 4.26821E-02-1.28930E+00 3.30120E-01
 -1        57 8.07112E-02-2.41276E+00-1.37395E-02
 -1        58 7.41696E-02-2.41578E+00 3.97845E-01
 -1        59 8.06037E-02-2.41599E+00 1.23686E-15
 -1        60 8.04961E-02-2.41921E+00 4.11823E-01
 -1        61 6.72642E-02-2.00857E+00-1.29583E-02
 -1        62 7.74645E-02-2.41347E+00 1.91472E-01
 -1        63 5.95674E-02-2.01212E+00 3.75200E-01
 -1        64 8.06306E-02-2.41518E+00-6.85395E-03
 -1        65 7.73058E-02-2.41830E+00 4.04978E-01
 -1        66 6.71377E-02-2.01236E+00 5.34729E-16
 -1        67 8.05768E-02-2.41680E+00 2.05438E-01
 -1        68 6.70112E-02-2.01616E+00 3.88409E-01
 -1        69 1.09620E-01-3.28135E+00-1.49348E-02
 -1        70 1.05189E-01-3.28340E+00 4.32506E-01
 -1        71 1.09548E-01-3.28354E+00 1.16400E-15
 -1        72 1.09474E-01-3.28573E+00 4.47650E-01
 -1        73 9.48698E-02-2.83821E+00-1.43918E-02
 -1        74 1.07420E-01-3.28184E+00 2.08272E-01
 -1        75 8.94068E-02-2.84073E+00 4.16757E-01
 -1        76 1.09566E-01-3.28299E+00-7.45342E-03
 -1        77 1.07313E-01-3.28511E+00 4.40204E-01
 -1        78 9.47798E-02-2.84090E+00 2.05998E-15
 -1        79 1.09529E-01-3.28410E+00 2.23407E-01
 -1        80 9.46899E-02-2.84360E+00 4.31374E-01
 -1        81 1.40456E-01-4.20737E+00-1.57002E-02
 -1        82 1.37826E-01-4.20859E+00 4.54722E-01
 -1        83 1.40412E-01-4.20867E+00 1.90126E-15
 -1        84 1.40369E-01-4.20997E+00 4.70594E-01
 -1        85 1.24850E-01-3.73876E+00-1.53641E-02
 -1        86 1.39147E-01-4.20766E+00 2.19091E-01
 -1        87 1.21351E-01-3.74039E+00 4.44961E-01
 -1        88 1.40423E-01-4.20834E+00-7.83870E-03
 -1        89 1.39086E-01-4.20960E+00 4.62762E-01
 -1        90 1.24792E-01-3.74049E+00 1.67834E-15
 -1        91 1.40401E-01-4.20901E+00 2.34955E-01
 -1        92 1.24735E-01-3.74223E+00 4.60518E-01
 -1        93 1.72425E-01-5.16699E+00-1.61136E-02
 -1        94 1.71198E-01-5.16757E+00 4.66748E-01
 -1        95 1.72405E-01-5.16761E+00 2.93689E-15
 -1        96 1.72384E-01-5.16822E+00 4.82985E-01
 -1        97 1.56342E-01-4.68425E+00-1.59432E-02
 -1        98 1.71812E-01-5.16714E+00 2.25012E-01
 -1        99 1.54452E-01-4.68515E+00 4.61784E-01
 -1       100 1.72410E-01-5.16745E+00-8.04852E-03
 -1       101 1.71785E-01-5.16804E+00 4.74943E-01
 -1       102 1.56310E-01-4.68519E+00 4.18589E-15
 -1       103 1.72399E-01-5.16777E+00 2.41244E-01
 -1       104 1.56279E-01-4.68614E+00 4.77877E-01
 -1       105 2.04912E-01-6.14162E+00-1.62719E-02
 -1       106 2.04598E-01-6.14180E+00 4.71390E-01
 -1       107 2.04906E-01-6.14180E+00 4.11997E-15
 -1       108 2.04900E-01-6.14196E+00 4.87730E-01
 -1       109 1.88635E-01-5.65333E+00-1.62164E-02
 -1       110 2.04750E-01-6.14168E+00 2.27397E-01
 -1       111 1.87911E-01-5.65370E+00 4.69751E-01
 -1       112 2.04908E-01-6.14175E+00-8.13154E-03
 -1       113 2.04747E-01-6.14191E+00 4.79599E-01
 -1       114 1.88622E-01-5.65370E+00 2.71484E-15
 -1       115 2.04905E-01-6.14185E+00 2.43732E-01
 -1       116 1.88610E-01-5.65408E+00 4.86065E-01
 -1       117 2.37513E-01-7.11911E+00-1.62932E-02
 -1       118 2.37538E-01-7.11913E+00 4.72038E-01
 -1       119 2.37512E-01-7.11912E+00 2.82413E-15
 -1       120 2.37512E-01-7.11914E+00 4.88367E-01
 -1       121 2.21214E-01-6.63046E+00-1.62908E-02
 -1       122 2.37522E-01-7.11913E+00 2.27857E-01
 -1       123 2.21114E-01-6.63054E+00 4.71967E-01
 -1       124 2.37513E-01-7.11911E+00-8.14628E-03
 -1       125 2.37523E-01-7.11913E+00 4.80210E-01
 -1       126 2.21211E-01-6.63052E+00 4.39579E-15
 -1       127 2.37512E-01-7.11914E+00 2.44174E-01
 -1       128 2.21209E-01-6.63059E+00 4.88297E-01
 -1       129 0.00000E+00 0.00000E+00 0.00000E+00
 -1       130 0.00000E+00 0.00000E+00 0.00000E+00
 -1       131 4.16355E-03-1.09715E-01 3.74889E-03
 -1       132 1.94520E-02-1.17189E-01 1.15080E-01
 -1       133 0.00000E+00 0.00000E+00 0.00000E+00
 -1       134 0.00000E+00 0.00000E+00 0.00000E+00
 -1       135 3.94763E-03-1.16077E-01 1.84748E-03
 -1       136 1.13788E-02-1.23524E-01 1.13599E-01
 -1       137 0.00000E+00 0.00000E+00 0.00000E+00
 -1       138 1.30677E-03-2.21020E-02 1.78127E-03
 -1       139 1.19272E-02-1.10795E-01 5.87556E-02
 -1       140 1.78517E-02-3.21158E-02 5.69097E-02
 -1       141 1.52734E-02-4.44224E-01 7.07494E-03
 -1       142 2.88010E-02-4.51346E-01 2.18885E-01
 -1       143 1.51096E-02-4.49207E-01 3.51892E-03
 -1       144 2.17728E-02-4.56162E-01 2.15629E-01
 -1       145 8.89370E-03-2.51419E-01 5.47379E-03
 -1       146 2.20852E-02-4.46232E-01 1.12257E-01
 -1       147 2.35912E-02-2.59608E-01 1.69213E-01
 -1       148 3.24794E-02-9.62332E-01 9.84125E-03
 -1       149 4.34728E-02-9.68300E-01 3.04522E-01
 -1       150 3.23376E-02-9.66562E-01 4.90286E-03
 -1       151 3.77376E-02-9.72343E-01 2.99866E-01
 -1       152 2.31865E-02-6.82528E-01 8.52310E-03
 -1       153 3.80274E-02-9.63876E-01 1.56546E-01
 -1       154 3.54380E-02-6.89189E-01 2.63699E-01
 -1       155 5.46547E-02-1.62946E+00 1.20563E-02
 -1       156 6.32491E-02-1.63412E+00 3.73155E-01
 -1       157 5.45459E-02-1.63273E+00 6.01081E-03
 -1       158 5.87712E-02-1.63725E+00 3.67378E-01
 -1       159 4.30145E-02-1.27934E+00 1.10137E-02
 -1       160 5.89883E-02-1.63071E+00 1.91976E-01
 -1       161 5.28004E-02-1.28466E+00 3.40848E-01
 -1       162 8.07112E-02-2.41276E+00 1.37395E-02
 -1       163 8.70380E-02-2.41621E+00 4.25308E-01
 -1       164 8.06306E-02-2.41518E+00 6.85395E-03
 -1       165 8.37403E-02-2.41851E+00 4.18671E-01
 -1       166 6.72642E-02-2.00857E+00 1.29583E-02
 -1       167 8.39041E-02-2.41368E+00 2.18951E-01
 -1       168 7.47085E-02-2.01262E+00 4.01100E-01
 -1       169 1.09620E-01-3.28135E+00 1.49348E-02
 -1       170 1.13906E-01-3.28369E+00 4.62361E-01
 -1       171 1.09566E-01-3.28299E+00 7.45342E-03
 -1       172 1.11673E-01-3.28525E+00 4.55098E-01
 -1       173 9.48698E-02-2.83821E+00 1.43918E-02
 -1       174 1.11784E-01-3.28198E+00 2.38142E-01
 -1       175 1.00154E-01-2.84109E+00 4.45525E-01
 -1       176 1.40456E-01-4.20737E+00 1.57002E-02
 -1       177 1.42999E-01-4.20876E+00 4.86111E-01
 -1       178 1.40423E-01-4.20834E+00 7.83870E-03
 -1       179 1.41674E-01-4.20969E+00 4.78429E-01
 -1       180 1.24850E-01-3.73876E+00 1.53641E-02
 -1       181 1.41742E-01-4.20775E+00 2.50492E-01
 -1       182 1.28235E-01-3.74062E+00 4.75676E-01
 -1       183 1.72425E-01-5.16699E+00 1.61136E-02
 -1       184 1.73612E-01-5.16765E+00 4.98967E-01
 -1       185 1.72410E-01-5.16745E+00 8.04852E-03
 -1       186 1.72994E-01-5.16808E+00 4.91032E-01
 -1       187 1.56342E-01-4.68425E+00 1.59432E-02
 -1       188 1.73028E-01-5.16718E+00 2.57239E-01
 -1       189 1.58170E-01-4.68527E+00 4.93660E-01
 -1       190 2.04912E-01-6.14162E+00 1.62719E-02
 -1       191 2.05215E-01-6.14182E+00 5.03930E-01
 -1       192 2.04908E-01-6.14175E+00 8.13154E-03
 -1       193 2.05058E-01-6.14192E+00 4.95858E-01
 -1       194 1.88635E-01-5.65333E+00 1.62164E-02
 -1       195 2.05071E-01-6.14169E+00 2.59941E-01
 -1       196 1.89335E-01-5.65375E+00 5.02177E-01
 -1       197 2.37513E-01-7.11911E+00 1.62932E-02
 -1       198 2.37487E-01-7.11913E+00 5.04621E-01
 -1       199 2.37513E-01-7.11911E+00 8.14628E-03
 -1       200 2.37502E-01-7.11913E+00 4.96501E-01
 -1       201 2.21214E-01-6.63046E+00 1.62908E-02
 -1       202 2.37503E-01-7.11913E+00 2.60443E-01
 -1       203 2.21310E-01-6.63054E+00 5.04546E-01
 -1       204 0.00000E+00 0.00000E+00 0.00000E+00
 -1       205 1.94520E-02-1.17189E-01-1.15080E-01
 -1       206 0.00000E+00 0.00000E+00 0.00000E+00
 -1       207 3.66038E-03-1.24797E-01-1.12368E-01
 -1       208 0.00000E+00 0.00000E+00 0.00000E+00
 -1       209 1.78517E-02-3.21158E-02-5.69097E-02
 -1       210 1.19272E-02-1.10795E-01-5.87556E-02
 -1       211 0.00000E+00 0.00000E+00 0.00000E+00
 -1       212 1.13788E-02-1.23524E-01-1.13599E-01
 -1       213 0.00000E+00 0.00000E+00 0.00000E+00
 -1       214 7.37378E-04-3.91689E-02-5.33911E-02
 -1       215 3.87263E-03-1.18325E-01-5.53757E-02
 -1       216 2.88010E-02-4.51346E-01-2.18885E-01
 -1       217 1.48205E-02-4.57800E-01-2.12062E-01
 -1       218 2.35912E-02-2.59608E-01-1.69213E-01
 -1       219 2.20852E-02-4.46232E-01-1.12257E-01
 -1       220 2.17728E-02-4.56162E-01-2.15629E-01
 -1       221 8.38799E-03-2.66577E-01-1.64070E-01
 -1       222 1.49867E-02-4.52890E-01-1.05475E-01
 -1       223 4.34728E-02-9.68300E-01-3.04522E-01
 -1       224 3.21059E-02-9.73528E-01-2.94979E-01
 -1       225 3.54380E-02-6.89189E-01-2.63699E-01
 -1       226 3.80274E-02-9.63876E-01-1.56546E-01
 -1       227 3.77376E-02-9.72343E-01-2.99866E-01
 -1       228 2.27709E-02-6.94985E-01-2.55469E-01
 -1       229 3.22470E-02-9.69278E-01-1.46957E-01
 -1       230 6.32491E-02-1.63412E+00-3.73155E-01
 -1       231 5.43631E-02-1.63820E+00-3.61373E-01
 -1       232 5.28004E-02-1.28466E+00-3.40848E-01
 -1       233 5.89883E-02-1.63071E+00-1.91976E-01
 -1       234 5.87712E-02-1.63725E+00-3.67378E-01
 -1       235 4.26821E-02-1.28930E+00-3.30120E-01
 -1       236 5.44722E-02-1.63494E+00-1.80166E-01
 -1       237 8.70380E-02-2.41621E+00-4.25308E-01
 -1       238 8.04961E-02-2.41921E+00-4.11823E-01
 -1       239 7.47085E-02-2.01262E+00-4.01100E-01
 -1       240 8.39041E-02-2.41368E+00-2.18951E-01
 -1       241 8.37403E-02-2.41851E+00-4.18671E-01
 -1       242 6.70112E-02-2.01616E+00-3.88409E-01
 -1       243 8.05768E-02-2.41680E+00-2.05438E-01
 -1       244 1.13906E-01-3.28369E+00-4.62361E-01
 -1       245 1.09474E-01-3.28573E+00-4.47650E-01
 -1       246 1.00154E-01-2.84109E+00-4.45525E-01
 -1       247 1.11784E-01-3.28198E+00-2.38142E-01
 -1       248 1.11673E-01-3.28525E+00-4.55098E-01
 -1       249 9.46899E-02-2.84360E+00-4.31374E-01
 -1       250 1.09529E-01-3.28410E+00-2.23407E-01
 -1       251 1.42999E-01-4.20876E+00-4.86111E-01
 -1       252 1.40369E-01-4.20997E+00-4.70594E-01
 -1       253 1.28235E-01-3.74062E+00-4.75676E-01
 -1       254 1.41742E-01-4.20775E+00-2.50492E-01
 -1       255 1.41674E-01-4.20969E+00-4.78429E-01
 -1       256 1.24735E-01-3.74223E+00-4.60518E-01
 -1       257 1.40401E-01-4.20901E+00-2.34955E-01
 -1       258 1.73612E-01-5.16765E+00-4.98967E-01
 -1       259 1.72384E-01-5.16822E+00-4.82985E-01
 -1       260 1.58170E-01-4.68527E+00-4.93660E-01
 -1       261 1.73028E-01-5.16718E+00-2.57239E-01
 -1       262 1.72994E-01-5.16808E+00-4.91032E-01
 -1       263 1.56279E-01-4.68614E+00-4.77877E-01
 -1       264 1.72399E-01-5.16777E+00-2.41244E-01
 -1       265 2.05215E-01-6.14182E+00-5.03930E-01
 -1       266 2.04900E-01-6.14196E+00-4.87730E-01
 -1       267 1.89335E-01-5.65375E+00-5.02177E-01
 -1       268 2.05071E-01-6.14169E+00-2.59941E-01
 -1       269 2.05058E-01-6.14192E+00-4.95858E-01
 -1       270 1.88610E-01-5.65408E+00-4.86065E-01
 -1       271 2.04905E-01-6.14185E+00-2.43732E-01
 -1       272 2.37487E-01-7.11913E+00-5.04621E-01
 -1       273 2.37512E-01-7.11914E+00-4.88367E-01
 -1       274 2.21310E-01-6.63054E+00-5.04546E-01
 -1       275 2.37503E-01-7.11913E+00-2.60443E-01
 -1       276 2.37502E-01-7.11913E+00-4.96501E-01
 -1       277 2.21209E-01-6.63059E+00-4.88297E-01
 -1       278 2.37512E-01-7.11914E+00-2.44174E-01
 -1       279 0.00000E+00 0.00000E+00 0.00000E+00
 -1       280-1.16672E-02-1.16151E-01-1.07650E-01
 -1       281 0.00000E+00 0.00000E+00 0.00000E+00
 -1       282-4.00312E-03-1.23002E-01-1.09928E-01
 -1       283 0.00000E+00 0.00000E+00 0.00000E+00
 -1       284-1.57461E-02-3.09949E-02-5.32350E-02
 -1       285-3.70244E-03-1.10282E-01-5.12982E-02
 -1       286 1.28444E-03-4.50428E-01-2.04751E-01
 -1       287 7.98673E-03-4.55703E-01-2.08611E-01
 -1       288-6.30214E-03-2.58610E-01-1.58287E-01
 -1       289 8.33699E-03-4.45772E-01-9.81031E-02
 -1       290 2.11123E-02-9.67554E-01-2.84859E-01
 -1       291 2.65647E-02-9.71970E-01-2.90077E-01
 -1       292 1.05205E-02-6.88358E-01-2.46672E-01
 -1       293 2.68400E-02-9.63503E-01-1.36864E-01
 -1       294 4.57687E-02-1.63354E+00-3.49060E-01
 -1       295 5.00287E-02-1.63696E+00-3.55373E-01
 -1       296 3.28966E-02-1.28400E+00-3.18839E-01
 -1       297 5.02476E-02-1.63042E+00-1.67863E-01
 -1       298 7.41696E-02-2.41578E+00-3.97845E-01
 -1       299 7.73058E-02-2.41830E+00-4.04978E-01
 -1       300 5.95674E-02-2.01212E+00-3.75200E-01
 -1       301 7.74645E-02-2.41347E+00-1.91472E-01
 -1       302 1.05189E-01-3.28340E+00-4.32506E-01
 -1       303 1.07313E-01-3.28511E+00-4.40204E-01
 -1       304 8.94068E-02-2.84073E+00-4.16757E-01
 -1       305 1.07420E-01-3.28184E+00-2.08272E-01
 -1       306 1.37826E-01-4.20859E+00-4.54722E-01
 -1       307 1.39086E-01-4.20960E+00-4.62762E-01
 -1       308 1.21351E-01-3.74039E+00-4.44961E-01
 -1       309 1.39147E-01-4.20766E+00-2.19091E-01
 -1       310 1.71198E-01-5.16757E+00-4.66748E-01
 -1       311 1.71785E-01-5.16804E+00-4.74943E-01
 -1       312 1.54452E-01-4.68515E+00-4.61784E-01
 -1       313 1.71812E-01-5.16714E+00-2.25012E-01
 -1       314 2.04598E-01-6.14180E+00-4.71390E-01
 -1       315 2.04747E-01-6.14191E+00-4.79599E-01
 -1       316 1.87911E-01-5.65370E+00-4.69751E-01
 -1       317 2.04750E-01-6.14168E+00-2.27397E-01
 -1       318 2.37538E-01-7.11913E+00-4.72038E-01
 -1       319 2.37523E-01-7.11913E+00-4.80210E-01
 -1       320 2.21114E-01-6.63054E+00-4.71967E-01
 -1       321 2.37522E-01-7.11913E+00-2.27857E-01
 -3
    1PSTEP                         2           1           1          
    1PGM                1.000000E+00                                  
    1PGK                2.768264E+07                                  
    1PHID                         -1                                  
    1PSUBC                         0                                  
    1PMODE                         1                                  
  100CL  101 837.3825237         321                     2    1MODAL      1
 -4  STRESS      6    1
 -5  SXX         1    4    1    1
 -5  SYY         1    4    2    2
 -5  SZZ         1    4    3    3
 -5  SXY         1    4    1    2
 -5  SYZ         1    4    2    3
 -5  SZX         1    4    3    1
 -1         1 1.27563E+12 1.27564E+12 2.97644E+12-5.41030E+03-6.32304E+10-4.14487E+11
 -1         2-4.09037E+10-4.09036E+10-9.54405E+10 1.81764E+04 1.72102E+11 8.59016E+09
 -1         3 4.54544E+08-3.03051E+09-8.15707E+10 3.41802E+10-1.53762E+11-1.42469E+09
 -1         4 2.56214E+10-2.96311E+10 2.26104E+12 4.41189E+10-1.61705E+10 7.63884E+10
 -1         5 1.22603E+12 1.22603E+12 2.86070E+12-6.06412E+02-2.57479E+11-5.74175E+09
 -1         6 5.82337E-04 8.86202E-04 1.30844E-03 1.39296E-04-9.96823E+09 3.32566E+08
 -1         7 3.37601E-04-9.36890E-03-2.68936E-04-1.10741E-02-1.18998E+11 3.97007E+09
 -1         8 9.08356E+10-1.36244E+10 2.44498E+12-1.14034E+09 4.27031E+10 5.12991E+09
 -1         9 6.09471E+11 6.09470E+11 1.42214E+12-6.74606E+05 7.58411E+10-2.02551E+11
 -1        10-3.65605E+09-1.92728E+09-8.04038E+10-6.83911E+10-1.77149E+10 3.98320E+09
 -1        11 5.09279E+10 8.18374E+10 1.12290E+12 3.81334E+10-7.83145E+10 4.02383E+10
 -1        12 2.82878E+10 1.02255E+11 2.29987E+12-6.33413E+10-2.83481E+10-9.41387E+10
 -1        13 1.24986E+12 1.24986E+12 2.91639E+12-3.72224E+05-1.80781E+11-2.10113E+11
 -1        14-2.01253E+10-2.01253E+10-4.69606E+10-3.67309E+05 6.04985E+10 3.72133E+09
 -1        15-2.96895E+09-2.76707E+09-4.19275E+10-2.08219E+09-1.44424E+11 1.06712E+09
 -1        16 5.64421E+10-2.08750E+10 2.35493E+12 6.89519E+09 5.09680E+09 2.90650E+10
 -1        17 6.03231E+11 6.03230E+11 1.40758E+12 1.22544E+04-1.11542E+11-2.01839E+09
 -1        18 1.99890E-03 3.05939E-03 2.48718E-03-3.02696E-03-1.11452E+11 3.71831E+09
 -1        19 8.29394E+10 8.89903E+10 1.25672E+12 6.94672E+07-3.19856E+10 4.81836E+09
 -1        20 5.77678E+10 1.09585E+11 2.41000E+12 2.28170E+09-1.19391E+11 5.91016E+08
 -1        21-1.52892E+09-5.16743E+08-6.47136E+10-9.91952E+09-1.46236E+11 1.04518E+09
 -1        22 1.67684E+10 4.43263E+10 1.86977E+12-7.94419E+09-3.44098E+10 8.10699E+09
 -1        23-1.41089E-02-8.10242E-03 8.50964E-03-1.64188E-02-1.19217E+11 3.97738E+09
 -1        24 1.54887E+10 4.58275E+10 1.93971E+12 3.30941E+08-3.13279E+10 4.87881E+09
 -1        25 2.26058E+09 7.26595E+08-6.89527E+10 1.17656E+10-1.01353E+11-1.59931E+08
 -1        26 2.53527E+09 9.40091E+09 8.97390E+11-8.64605E+09-9.53453E+10 1.66058E+09
 -1        27-2.47587E+10-5.84142E+10 2.01424E+12 1.27807E+10-9.75022E+09 7.22467E+09
 -1        28-2.03670E+08-5.76777E+07-3.22272E+10-1.18380E+09-1.25344E+11 2.68655E+09
 -1        29 1.77421E+10 4.61022E+10 1.90813E+12 4.50023E+08-2.54416E+10 1.01430E+10
 -1        30 6.51741E-03 9.61876E-03 1.19247E-02 1.09148E-03-8.88798E+10 2.96526E+09
 -1        31 1.72881E+09 6.10473E+09 9.65967E+11 3.94946E+07-8.05257E+10 4.18182E+09
 -1        32-2.17787E+10-6.77579E+10 2.06677E+12-3.92530E+08 4.79373E+09 3.38140E+09
 -1        33 3.47451E+08 1.00643E+08-5.21635E+10 2.18087E+09-1.35282E+11 1.13691E+09
 -1        34-3.14604E+09-8.53462E+09 1.51224E+12 2.36869E+09-4.16467E+10 8.10398E+09
 -1        35-6.04203E-02 1.43499E-02-6.85310E-03-2.91336E-02-1.13121E+11 3.77402E+09
 -1        36-3.01664E+09-1.04144E+10 1.56353E+12-7.27594E+07-3.40773E+10 4.51337E+09
 -1        37-4.77549E+08-1.40357E+08-5.82796E+10-3.06561E+09-1.06751E+11 1.17830E+08
 -1        38 9.94188E+08 9.93681E+08 7.33386E+11 2.18903E+09-9.04553E+10 2.71214E+09
 -1        39 3.99090E+09 1.08200E+10 1.68674E+12-3.34213E+09-9.82079E+09 6.34294E+09
 -1        40-5.21144E+06-2.49756E+07-2.61723E+10-4.02072E+07-1.19992E+11 2.51626E+09
 -1        41-3.38719E+09-9.50762E+09 1.53736E+12 2.81966E+08-3.35520E+10 8.51848E+09
 -1        42-3.09205E-02-3.06973E-02-3.80230E-03-3.40222E-02-8.32465E+10 2.77732E+09
 -1        43 7.48610E+08 1.56206E+08 7.84481E+11 1.34142E+06-7.54217E+10 4.00323E+09
 -1        44 4.20702E+09 1.43139E+10 1.74686E+12 1.02277E+08-3.53180E+09 3.56148E+09
 -1        45-7.26871E+07 1.83778E+06-4.07653E+10-6.18984E+08-1.30100E+11 1.06561E+09
 -1        46 2.92132E+08 1.87901E+09 1.18147E+12-5.68649E+08-3.87382E+10 7.54252E+09
 -1        47 2.91687E-02 1.18376E-01 1.25844E-02-5.39147E-02-1.08800E+11 3.62986E+09
 -1        48-5.50850E+07 2.17870E+09 1.22189E+12 2.06509E+07-3.19402E+10 4.34048E+09
 -1        49 1.31355E+08 3.75856E+07-4.64672E+10 8.67651E+08-1.01315E+11 6.07010E+07
 -1        50-1.22786E+08-9.48804E+07 5.70688E+11-5.62905E+08-8.70641E+10 2.31175E+09
 -1        51-1.11197E+09-3.44417E+09 1.34690E+12 8.92588E+08-9.27686E+09 6.73515E+09
 -1        52 6.76072E+06 1.29960E+07-2.03882E+10 2.13724E+07-1.14729E+11 2.43449E+09
 -1        53 6.86906E+07 1.93723E+09 1.20154E+12 2.26409E+07-3.05690E+10 8.24770E+09
 -1        54-3.78914E-02-4.78888E-02-2.46592E-02-3.82563E-02-7.98370E+10 2.66357E+09
 -1        55-3.89537E+08-2.02644E+08 6.11110E+11-7.13040E+05-7.29708E+10 3.82765E+09
 -1        56-1.12658E+09-3.93720E+09 1.39279E+12-2.89471E+07-1.81943E+09 3.38013E+09
 -1        57 5.61366E+07 4.89264E+07-2.99483E+10 9.46577E+07-1.19369E+11 9.93588E+08
 -1        58-1.19417E+09-1.72577E+09 8.68287E+11 1.76806E+08-3.62016E+10 6.94185E+09
 -1        59-1.33077E-01-2.00813E-01-3.76673E-02-6.84470E-02-9.98292E+10 3.33056E+09
 -1        60-1.46651E+09-1.68262E+09 8.97661E+11-3.15802E+06-2.97815E+10 3.98245E+09
 -1        61-1.71845E+07 1.30029E+06-3.53520E+10-1.45799E+08-9.56494E+10 5.83945E+07
 -1        62-7.27917E+07-3.90315E+08 4.20800E+11 1.39346E+08-8.00330E+10 2.15329E+09
 -1        63 1.99131E+08 2.04198E+08 1.02464E+12-1.08052E+08-8.43309E+09 6.30564E+09
 -1        64 1.25451E+07 1.02805E+07-1.50197E+10 4.56649E+07-1.05410E+11 2.23462E+09
 -1        65-1.44271E+09-1.73961E+09 8.82655E+11 1.09491E+08-2.87355E+10 7.57712E+09
 -1        66-5.15780E-02-6.51715E-02-3.38092E-02-3.96395E-02-7.51933E+10 2.50864E+09
 -1        67-3.08145E+08-3.76023E+08 4.50197E+11-1.52350E+06-6.69797E+10 3.51676E+09
 -1        68-3.89745E+07 5.15084E+08 1.05963E+12 4.86423E+06-1.75030E+09 3.19111E+09
 -1        69 3.67161E+07 5.49547E+07-2.02209E+10-9.62688E+07-1.05128E+11 8.70075E+08
 -1        70-1.26829E+09-1.30481E+09 5.86589E+11-2.21288E+07-3.17132E+10 6.12198E+09
 -1        71-8.79877E-02 1.14784E-01-1.74154E-02-1.77837E-01-8.79322E+10 2.93364E+09
 -1        72-1.64720E+09-1.10052E+09 6.06096E+11 3.21177E+06-2.60794E+10 3.50736E+09
 -1        73 2.49931E+07 1.21211E+07-2.50902E+10 1.37503E+08-8.60383E+10 5.41799E+07
 -1        74-1.47020E+08-5.12711E+08 2.85066E+11-4.39246E+07-7.04444E+10 1.89808E+09
 -1        75-5.97286E+07-9.13121E+08 7.27599E+11 2.11106E+08-7.69198E+09 5.66635E+09
 -1        76 1.68291E+07 1.60870E+07-1.01610E+10 7.09864E+07-9.28091E+10 1.96753E+09
 -1        77-1.61426E+09-1.29389E+09 5.95874E+11 1.15617E+08-2.51226E+10 6.67215E+09
 -1        78 8.08739E-02 1.41984E-01 6.61068E-02-8.96237E-02-6.76359E+10 2.25651E+09
 -1        79-4.82187E+08-5.04430E+08 3.04561E+11-2.36829E+06-5.89740E+10 3.09635E+09
 -1        80-3.63315E+08-7.49135E+08 7.52046E+11-4.58746E+06-1.62397E+09 2.87046E+09
 -1        81 5.64601E+07 7.32127E+07-1.19067E+10-7.21733E+07-8.61377E+10 7.14421E+08
 -1        82-1.71180E+09-1.93112E+09 3.45910E+11 3.97002E+07-2.60385E+10 5.02488E+09
 -1        83-2.37848E-01 2.48107E-01 8.85877E-02-1.32962E-01-7.20390E+10 2.40341E+09
 -1        84-2.19446E+09-1.69232E+09 3.56887E+11 2.40789E+06-2.14138E+10 2.87378E+09
 -1        85 2.17154E+07 1.39730E+07-1.60647E+10 1.02509E+08-7.33415E+10 4.51678E+07
 -1        86-1.84931E+08-6.70759E+08 1.69465E+11 1.43104E+06-5.77354E+10 1.55636E+09
 -1        87-1.22052E+07-9.22952E+08 4.66279E+11 1.88766E+08-6.53028E+09 4.85187E+09
 -1        88 2.16132E+07 2.02422E+07-6.02010E+09 8.71551E+07-7.60474E+10 1.61229E+09
 -1        89-2.14799E+09-1.91390E+09 3.50793E+11 1.56835E+08-2.06380E+10 5.47657E+09
 -1        90-3.73122E-02 2.86105E-01 9.08985E-02-6.34344E-02-5.76498E+10 1.92335E+09
 -1        91-6.06735E+08-6.47826E+08 1.80445E+11-2.90772E+06-4.83261E+10 2.53714E+09
 -1        92-4.18823E+08-6.50889E+08 4.81520E+11-3.41997E+06-1.35385E+09 2.44686E+09
 -1        93 6.76743E+07 8.89726E+07-5.42426E+09-9.78040E+07-6.24758E+10 5.16425E+08
 -1        94-2.08224E+09-2.31781E+09 1.58284E+11 2.49227E+07-1.88233E+10 3.63076E+09
 -1        95 3.15878E-03 1.13209E-01-5.38736E-02-4.42161E-02-5.22281E+10 1.74247E+09
 -1        96-2.66684E+09-2.02845E+09 1.62585E+11 3.26299E+06-1.54792E+10 2.08436E+09
 -1        97 2.98238E+07 1.78672E+07-8.66749E+09 1.44817E+08-5.70106E+10 3.49690E+07
 -1        98-2.15772E+08-8.21829E+08 7.94672E+10-1.64422E+07-4.18458E+10 1.11259E+09
 -1        99-2.41343E+07-1.20743E+09 2.52176E+11 2.56215E+08-5.07378E+09 3.76828E+09
 -1       100 2.64381E+07 2.44232E+07-2.79404E+09 1.11995E+08-5.51398E+10 1.16827E+09
 -1       101-2.62444E+09-2.30795E+09 1.59650E+11 1.92253E+08-1.49028E+10 3.98626E+09
 -1       102-1.72709E-02 2.45708E-01 9.06776E-02-1.41970E-01-4.47974E+10 1.49456E+09
 -1       103-7.32054E+08-7.92447E+08 8.37478E+10-3.73644E+06-3.50174E+10 1.83961E+09
 -1       104-5.35546E+08-8.93931E+08 2.59797E+11-4.83146E+06-1.04815E+09 1.90202E+09
 -1       105 7.85380E+07 1.05707E+08-1.18614E+09-8.60654E+07-3.36635E+10 2.81739E+08
 -1       106-2.32229E+09-2.67713E+09 3.60417E+10 9.07393E+07-1.03042E+10 1.95924E+09
 -1       107-3.71555E-01-6.77852E-01-2.43295E-01-4.48107E-01-2.81534E+10 9.39271E+08
 -1       108-3.16842E+09-2.35407E+09 3.55531E+10 2.87137E+06-8.44475E+09 1.12310E+09
 -1       109 3.52839E+07 2.10870E+07-3.30710E+09 1.71131E+08-3.68678E+10 2.36299E+07
 -1       110-3.06982E+08-1.05245E+09 2.07902E+10 3.32467E+07-2.26273E+10 6.29263E+08
 -1       111-2.61555E+07-1.49939E+09 9.70405E+10 3.17870E+08-3.36975E+09 2.50573E+09
 -1       112 3.34698E+07 3.21420E+07-6.84883E+08 1.49840E+08-2.97370E+10 6.31243E+08
 -1       113-2.98864E+09-2.61970E+09 3.49798E+10 2.51717E+08-8.19260E+09 2.09200E+09
 -1       114-1.20916E-02-1.57913E-02 1.77766E-02-1.54210E-01-2.89684E+10 9.66460E+08
 -1       115-9.63413E+08-1.00321E+09 2.05285E+10-4.99904E+06-1.89207E+10 9.92104E+08
 -1       116-6.32054E+08-1.05759E+09 9.91261E+10-5.70937E+06-7.08275E+08 1.23001E+09
 -1       117 9.06821E+07 9.75869E+07 3.05575E+08 1.84089E+08-4.61703E+09 5.80689E+07
 -1       118-2.29752E+09-3.21577E+09-9.33136E+09 1.98484E+08-2.12977E+09 2.74752E+08
 -1       119 2.78387E-01-5.35070E-01-1.82447E-01-1.89459E-01-3.53655E+09 1.17988E+08
 -1       120-2.92504E+09-2.71808E+09-9.15920E+09-6.14167E+06-1.74054E+09 1.54036E+08
 -1       121 4.03118E+07 3.16826E+07-4.25041E+08 1.68645E+08-1.35065E+10 2.62246E+06
 -1       122-2.14614E+08-1.51765E+09-1.14642E+09 1.92889E+08-3.70728E+09 8.85199E+07
 -1       123-1.65376E+08-1.54018E+09 1.30788E+10 2.86778E+08-8.97919E+08 7.43323E+08
 -1       124 4.48312E+07 2.48820E+07 5.91941E+07 3.27657E+08-3.61976E+09 9.87859E+07
 -1       125-2.86557E+09-3.15489E+09-1.00415E+10 3.32703E+08-1.49204E+09 1.44807E+08
 -1       126 2.59744E-01 1.75471E-01 1.02828E-01-2.77796E-01-1.04721E+10 3.49377E+08
 -1       127-7.45805E+08-1.34376E+09-1.77426E+09-1.09315E+07-2.96098E+09 1.20765E+08
 -1       128-9.49644E+08-1.20829E+09 1.27400E+10-5.62643E+06-7.86047E+07 4.50612E+08
 -1       129 1.36369E+12 1.36369E+12 3.18190E+12 5.78377E+03-9.10588E+10 4.19634E+11
 -1       130 4.09037E+10 4.09036E+10 9.54405E+10-1.81764E+04 1.72102E+11 8.59016E+09
 -1       131-4.54544E+08 3.03051E+09 8.15707E+10-3.41802E+10-1.53762E+11-1.42469E+09
 -1       132 2.36991E+10-2.79857E+10 2.41711E+12-4.71643E+10-1.11039E+10-7.54785E+10
 -1       133 1.29336E+12 1.29336E+12 3.01789E+12 4.18117E+05-1.94714E+11 2.05515E+11
 -1       134 2.01253E+10 2.01253E+10 4.69606E+10 3.67309E+05 6.04985E+10 3.72133E+09
 -1       135 2.96895E+09 2.76707E+09 4.19275E+10 2.08219E+09-1.44424E+11 1.06712E+09
 -1       136 6.20346E+10-1.75196E+10 2.43519E+12-9.45785E+09 7.79606E+09-2.38984E+10
 -1       137 6.94320E+11 6.94319E+11 1.62013E+12 7.00974E+05 6.19747E+10 2.15078E+11
 -1       138 3.65605E+09 1.92728E+09 8.04038E+10 6.83911E+10-1.77149E+10 3.98320E+09
 -1       139 4.96469E+10 8.57901E+10 1.28272E+12-3.86790E+10-7.65475E+10-4.06685E+10
 -1       140 3.51814E+10 1.04373E+11 2.45862E+12 6.77136E+10-3.46997E+10 9.62421E+10
 -1       141 1.52892E+09 5.16743E+08 6.47136E+10 9.91952E+09-1.46236E+11 1.04518E+09
 -1       142 1.97668E+10 4.55452E+10 1.99884E+12 8.49256E+09-3.39449E+10-5.82650E+09
 -1       143 2.03670E+08 5.76777E+07 3.22272E+10 1.18380E+09-1.25344E+11 2.68655E+09
 -1       144 1.84097E+10 4.63743E+10 1.97233E+12 1.26526E+08-2.53874E+10-3.79656E+09
 -1       145-2.26058E+09-7.26595E+08 6.89527E+10-1.17656E+10-1.01353E+11-1.59931E+08
 -1       146 5.62052E+09 1.06070E+10 1.02685E+12 8.63526E+09-9.48802E+10 3.52018E+07
 -1       147-2.87160E+10-6.01983E+10 2.15328E+12-1.36629E+10-9.28934E+09-6.58947E+09
 -1       148-3.47451E+08-1.00643E+08 5.21635E+10-2.18087E+09-1.35282E+11 1.13691E+09
 -1       149-3.72316E+09-8.76379E+09 1.61663E+12-2.53219E+09-4.11981E+10-5.34006E+09
 -1       150 5.21144E+06 2.49756E+07 2.61723E+10 4.02072E+07-1.19992E+11 2.51626E+09
 -1       151-3.32836E+09-9.46240E+09 1.58977E+12-4.28821E+08-3.34456E+10-2.49509E+09
 -1       152 4.77549E+08 1.40357E+08 5.82796E+10 3.06561E+09-1.06751E+11 1.17830E+08
 -1       153 3.61299E+08 7.69632E+08 8.37715E+11-2.21275E+09-9.00879E+10-4.76925E+08
 -1       154 4.72257E+09 1.11107E+10 1.80317E+12 3.57283E+09-9.41897E+09-5.70105E+09
 -1       155 7.26871E+07-1.83778E+06 4.07653E+10 6.18984E+08-1.30100E+11 1.06561E+09
 -1       156 4.18301E+08 1.90272E+09 1.26302E+12 6.07902E+08-3.83207E+10-4.97163E+09
 -1       157-6.76072E+06-1.29960E+07 2.03882E+10-2.13724E+07-1.14729E+11 2.43449E+09
 -1       158 6.25057E+07 1.93334E+09 1.24234E+12 1.49104E+07-3.04827E+10-2.45024E+09
 -1       159-1.31355E+08-3.75856E+07 4.64672E+10-8.67651E+08-1.01315E+11 6.07010E+07
 -1       160 6.34656E+06-9.05033E+07 6.52222E+11 5.62647E+08-8.67072E+10-2.74910E+08
 -1       161-1.34452E+09-3.52612E+09 1.43987E+12-9.54201E+08-8.84763E+09-6.13047E+09
 -1       162-5.61366E+07-4.89264E+07 2.99483E+10-9.46577E+07-1.19369E+11 9.93588E+08
 -1       163-1.31211E+09-1.80939E+09 9.28224E+11-1.89011E+08-3.58186E+10-4.53907E+09
 -1       164-1.25451E+07-1.02805E+07 1.50197E+10-4.56649E+07-1.05410E+11 2.23462E+09
 -1       165-1.47200E+09-1.74835E+09 9.12731E+11-1.19044E+08-2.86557E+10-2.24784E+09
 -1       166 1.71845E+07-1.30029E+06 3.53520E+10 1.45799E+08-9.56494E+10 5.83945E+07
 -1       167-1.89159E+08-4.87557E+08 4.80699E+11-1.46970E+08-7.97052E+10-2.38574E+08
 -1       168 2.13215E+08 2.17954E+08 1.09537E+12 1.15511E+08-8.03067E+09-5.75637E+09
 -1       169-3.67161E+07-5.49547E+07 2.02209E+10 9.62688E+07-1.05128E+11 8.70075E+08
 -1       170-1.35828E+09-1.39244E+09 6.27081E+11 2.36563E+07-3.13749E+10-4.01720E+09
 -1       171-1.68291E+07-1.60870E+07 1.01610E+10-7.09864E+07-9.28091E+10 1.96753E+09
 -1       172-1.65211E+09-1.30660E+09 6.16244E+11-1.12940E+08-2.50518E+10-1.98137E+09
 -1       173-2.49931E+07-1.21211E+07 2.50902E+10-1.37503E+08-8.60383E+10 5.41799E+07
 -1       174-2.33779E+08-6.21686E+08 3.25505E+11 3.62993E+07-7.01556E+10-2.24139E+08
 -1       175-1.20858E+08-9.19145E+08 7.77824E+11-2.25678E+08-7.33061E+09-5.16516E+09
 -1       176-5.64601E+07-7.32127E+07 1.19067E+10 7.21733E+07-8.61377E+10 7.14421E+08
 -1       177-1.84461E+09-2.04977E+09 3.69787E+11-4.24406E+07-2.57609E+10-3.29671E+09
 -1       178-2.16132E+07-2.02422E+07 6.02010E+09-8.71551E+07-7.60474E+10 1.61229E+09
 -1       179-2.19758E+09-1.93052E+09 3.62895E+11-1.57280E+08-2.05800E+10-1.63208E+09
 -1       180-2.17154E+07-1.39730E+07 1.60647E+10-1.02509E+08-7.33415E+10 4.51678E+07
 -1       181-3.13190E+08-8.15738E+08 1.93275E+11-1.19108E+07-5.74982E+10-1.81215E+08
 -1       182-7.38852E+07-9.25824E+08 4.98466E+11-2.01796E+08-6.22073E+09-4.42646E+09
 -1       183-6.76743E+07-8.89726E+07 5.42426E+09 9.78040E+07-6.24758E+10 5.16425E+08
 -1       184-2.24171E+09-2.46206E+09 1.69211E+11-2.66431E+07-1.86227E+10-2.38146E+09
 -1       185-2.64381E+07-2.44232E+07 2.79404E+09-1.11995E+08-5.51398E+10 1.16827E+09
 -1       186-2.68519E+09-2.32751E+09 1.65314E+11-1.91583E+08-1.48617E+10-1.19987E+09
 -1       187-2.98238E+07-1.78672E+07 8.66749E+09-1.44817E+08-5.70106E+10 3.49690E+07
 -1       188-3.70422E+08-9.98972E+08 9.03088E+10 3.63647E+06-4.16727E+10-1.19571E+08
 -1       189-1.04844E+08-1.21173E+09 2.69583E+11-2.73901E+08-4.83336E+09-3.43776E+09
 -1       190-7.85380E+07-1.05707E+08 1.18614E+09 8.60654E+07-3.36635E+10 2.81739E+08
 -1       191-2.50630E+09-2.83823E+09 3.85296E+10-9.70029E+07-1.01963E+10-1.27529E+09
 -1       192-3.34698E+07-3.21420E+07 6.84883E+08-1.49840E+08-2.97370E+10 6.31243E+08
 -1       193-3.06561E+09-2.64604E+09 3.64466E+10-2.54499E+08-8.16882E+09-5.85174E+08
 -1       194-3.52839E+07-2.10870E+07 3.30710E+09-1.71131E+08-3.68678E+10 2.36299E+07
 -1       195-4.82661E+08-1.25444E+09 2.31731E+10-5.01354E+07-2.25380E+10-8.34037E+07
 -1       196-1.26372E+08-1.50448E+09 1.03739E+11-3.39812E+08-3.20988E+09-2.28621E+09
 -1       197-9.06821E+07-9.75869E+07-3.05575E+08-1.84089E+08-4.61703E+09 5.80689E+07
 -1       198-2.51746E+09-3.37641E+09-9.97548E+09-2.12185E+08-2.11616E+09-1.33097E+08
 -1       199-4.48312E+07-2.48820E+07-5.91941E+07-3.27657E+08-3.61976E+09 9.87859E+07
 -1       200-2.97333E+09-3.17625E+09-1.01405E+10-3.46329E+08-1.48945E+09 1.02515E+08
 -1       201-4.03118E+07-3.16826E+07 4.25041E+08-1.68645E+08-1.35065E+10 2.62246E+06
 -1       202-4.25838E+08-1.71245E+09-1.81974E+09-2.15543E+08-3.70587E+09 1.09503E+07
 -1       203-2.68627E+08-1.55466E+09 1.39816E+10-3.06574E+08-8.50267E+08-6.84999E+08
 -1       204-1.36369E+12-1.36369E+12-3.18190E+12-5.78377E+03-9.10588E+10 4.19634E+11
 -1       205-2.36991E+10 2.79857E+10-2.41711E+12 4.71643E+10-1.11039E+10-7.54785E+10
 -1       206-1.22603E+12-1.22603E+12-2.86070E+12 6.06413E+02-2.57479E+11-5.74175E+09
 -1       207-9.08356E+10 1.36244E+10-2.44498E+12 1.14034E+09 4.27031E+10 5.12991E+09
 -1       208-6.94320E+11-6.94319E+11-1.62013E+12-7.00974E+05 6.19747E+10 2.15078E+11
 -1       209-3.51814E+10-1.04373E+11-2.45862E+12-6.77136E+10-3.46997E+10 9.62421E+10
 -1       210-4.96469E+10-8.57901E+10-1.28272E+12 3.86790E+10-7.65475E+10-4.06685E+10
 -1       211-1.29336E+12-1.29336E+12-3.01789E+12-4.18117E+05-1.94714E+11 2.05515E+11
 -1       212-6.20346E+10 1.75196E+10-2.43519E+12 9.45785E+09 7.79606E+09-2.38984E+10
 -1       213-6.03231E+11-6.03230E+11-1.40758E+12-1.22544E+04-1.11542E+11-2.01839E+09
 -1       214-5.77678E+10-1.09585E+11-2.41000E+12-2.28170E+09-1.19391E+11 5.91016E+08
 -1       215-8.29394E+10-8.89903E+10-1.25672E+12-6.94672E+07-3.19856E+10 4.81836E+09
 -1       216-1.97668E+10-4.55452E+10-1.99884E+12-8.49256E+09-3.39449E+10-5.82650E+09
 -1       217-1.54887E+10-4.58275E+10-1.93971E+12-3.30941E+08-3.13279E+10 4.87881E+09
 -1       218 2.87160E+10 6.01983E+10-2.15328E+12 1.36629E+10-9.28934E+09-6.58947E+09
 -1       219-5.62052E+09-1.06070E+10-1.02685E+12-8.63526E+09-9.48802E+10 3.52018E+07
 -1       220-1.84097E+10-4.63743E+10-1.97233E+12-1.26526E+08-2.53874E+10-3.79656E+09
 -1       221 2.17787E+10 6.77579E+10-2.06677E+12 3.92530E+08 4.79373E+09 3.38140E+09
 -1       222-1.72881E+09-6.10473E+09-9.65967E+11-3.94946E+07-8.05257E+10 4.18182E+09
 -1       223 3.72316E+09 8.76379E+09-1.61663E+12 2.53219E+09-4.11981E+10-5.34006E+09
 -1       224 3.01664E+09 1.04144E+10-1.56353E+12 7.27594E+07-3.40773E+10 4.51337E+09
 -1       225-4.72257E+09-1.11107E+10-1.80317E+12-3.57283E+09-9.41897E+09-5.70105E+09
 -1       226-3.61299E+08-7.69632E+08-8.37715E+11 2.21275E+09-9.00879E+10-4.76925E+08
 -1       227 3.32836E+09 9.46240E+09-1.58977E+12 4.28821E+08-3.34456E+10-2.49509E+09
 -1       228-4.20702E+09-1.43139E+10-1.74686E+12-1.02277E+08-3.53180E+09 3.56148E+09
 -1       229-7.48610E+08-1.56206E+08-7.84481E+11-1.34142E+06-7.54217E+10 4.00323E+09
 -1       230-4.18301E+08-1.90272E+09-1.26302E+12-6.07902E+08-3.83207E+10-4.97163E+09
 -1       231 5.50850E+07-2.17870E+09-1.22189E+12-2.06509E+07-3.19402E+10 4.34048E+09
 -1       232 1.34452E+09 3.52612E+09-1.43987E+12 9.54201E+08-8.84763E+09-6.13047E+09
 -1       233-6.34656E+06 9.05033E+07-6.52222E+11-5.62647E+08-8.67072E+10-2.74910E+08
 -1       234-6.25057E+07-1.93334E+09-1.24234E+12-1.49104E+07-3.04827E+10-2.45024E+09
 -1       235 1.12658E+09 3.93720E+09-1.39279E+12 2.89471E+07-1.81943E+09 3.38013E+09
 -1       236 3.89537E+08 2.02644E+08-6.11110E+11 7.13040E+05-7.29708E+10 3.82765E+09
 -1       237 1.31211E+09 1.80939E+09-9.28224E+11 1.89011E+08-3.58186E+10-4.53907E+09
 -1       238 1.46651E+09 1.68262E+09-8.97661E+11 3.15802E+06-2.97815E+10 3.98245E+09
 -1       239-2.13215E+08-2.17954E+08-1.09537E+12-1.15511E+08-8.03067E+09-5.75637E+09
 -1       240 1.89159E+08 4.87557E+08-4.80699E+11 1.46970E+08-7.97052E+10-2.38574E+08
 -1       241 1.47200E+09 1.74835E+09-9.12731E+11 1.19044E+08-2.86557E+10-2.24784E+09
 -1       242 3.89745E+07-5.15084E+08-1.05963E+12-4.86423E+06-1.75030E+09 3.19111E+09
 -1       243 3.08145E+08 3.76023E+08-4.50197E+11 1.52350E+06-6.69797E+10 3.51676E+09
 -1       244 1.35828E+09 1.39244E+09-6.27081E+11-2.36563E+07-3.13749E+10-4.01720E+09
 -1       245 1.64720E+09 1.10052E+09-6.06096E+11-3.21178E+06-2.60794E+10 3.50736E+09
 -1       246 1.20858E+08 9.19145E+08-7.77824E+11 2.25678E+08-7.33061E+09-5.16516E+09
 -1       247 2.33779E+08 6.21686E+08-3.25505E+11-3.62993E+07-7.01556E+10-2.24139E+08
 -1       248 1.65211E+09 1.30660E+09-6.16244E+11 1.12940E+08-2.50518E+10-1.98137E+09
 -1       249 3.63315E+08 7.49135E+08-7.52046E+11 4.58746E+06-1.62397E+09 2.87046E+09
 -1       250 4.82187E+08 5.04430E+08-3.04561E+11 2.36829E+06-5.89740E+10 3.09635E+09
 -1       251 1.84461E+09 2.04977E+09-3.69787E+11 4.24406E+07-2.57609E+10-3.29671E+09
 -1       252 2.19446E+09 1.69232E+09-3.56887E+11-2.40789E+06-2.14138E+10 2.87378E+09
 -1       253 7.38852E+07 9.25824E+08-4.98466E+11 2.01796E+08-6.22073E+09-4.42646E+09
 -1       254 3.13190E+08 8.15738E+08-1.93275E+11 1.19108E+07-5.74982E+10-1.81215E+08
 -1       255 2.19758E+09 1.93052E+09-3.62895E+11 1.57280E+08-2.05800E+10-1.63208E+09
 -1       256 4.18823E+08 6.50889E+08-4.81520E+11 3.41997E+06-1.35385E+09 2.44686E+09
 -1       257 6.06735E+08 6.47826E+08-1.80445E+11 2.90772E+06-4.83261E+10 2.53714E+09
 -1       258 2.24171E+09 2.46206E+09-1.69211E+11 2.66431E+07-1.86227E+10-2.38146E+09
 -1       259 2.66684E+09 2.02845E+09-1.62585E+11-3.26299E+06-1.54792E+10 2.08436E+09
 -1       260 1.04844E+08 1.21173E+09-2.69583E+11 2.73901E+08-4.83336E+09-3.43776E+09
 -1       261 3.70422E+08 9.98972E+08-9.03088E+10-3.63647E+06-4.16727E+10-1.19571E+08
 -1       262 2.68519E+09 2.32751E+09-1.65314E+11 1.91583E+08-1.48617E+10-1.19987E+09
 -1       263 5.35546E+08 8.93931E+08-2.59797E+11 4.83146E+06-1.04815E+09 1.90202E+09
 -1       264 7.32054E+08 7.92447E+08-8.37478E+10 3.73644E+06-3.50174E+10 1.83961E+09
 -1       265 2.50630E+09 2.83823E+09-3.85296E+10 9.70029E+07-1.01963E+10-1.27529E+09
 -1       266 3.16842E+09 2.35407E+09-3.55531E+10-2.87137E+06-8.44475E+09 1.12310E+09
 -1       267 1.26372E+08 1.50448E+09-1.03739E+11 3.39812E+08-3.20988E+09-2.28621E+09
 -1       268 4.82661E+08 1.25444E+09-2.31731E+10 5.01354E+07-2.25380E+10-8.34037E+07
 -1       269 3.06561E+09 2.64604E+09-3.64466E+10 2.54499E+08-8.16882E+09-5.85174E+08
 -1       270 6.32054E+08 1.05759E+09-9.91261E+10 5.70937E+06-7.08275E+08 1.23001E+09
 -1       271 9.63413E+08 1.00321E+09-2.05285E+10 4.99904E+06-1.89207E+10 9.92104E+08
 -1       272 2.51746E+09 3.37641E+09 9.97548E+09 2.12185E+08-2.11616E+09-1.33097E+08
 -1       273 2.92504E+09 2.71808E+09 9.15920E+09 6.14167E+06-1.74054E+09 1.54036E+08
 -1       274 2.68627E+08 1.55466E+09-1.39816E+10 3.06574E+08-8.50267E+08-6.84999E+08
 -1       275 4.25838E+08 1.71245E+09 1.81974E+09 2.15543E+08-3.70587E+09 1.09503E+07
 -1       276 2.97333E+09 3.17625E+09 1.01405E+10 3.46329E+08-1.48945E+09 1.02515E+08
 -1       277 9.49644E+08 1.20829E+09-1.27400E+10 5.62643E+06-7.86047E+07 4.50612E+08
 -1       278 7.45805E+08 1.34376E+09 1.77426E+09 1.09315E+07-2.96098E+09 1.20765E+08
 -1       279-1.27563E+12-1.27564E+12-2.97644E+12 5.41030E+03-6.32304E+10-4.14487E+11
 -1       280-2.56214E+10 2.96311E+10-2.26104E+12-4.41189E+10-1.61705E+10 7.63884E+10
 -1       281-1.24986E+12-1.24986E+12-2.91639E+12 3.72224E+05-1.80781E+11-2.10113E+11
 -1       282-5.64421E+10 2.08750E+10-2.35493E+12-6.89519E+09 5.09680E+09 2.90650E+10
 -1       283-6.09471E+11-6.09470E+11-1.42214E+12 6.74606E+05 7.58411E+10-2.02551E+11
 -1       284-2.82878E+10-1.02255E+11-2.29987E+12 6.33413E+10-2.83481E+10-9.41387E+10
 -1       285-5.09279E+10-8.18374E+10-1.12290E+12-3.81334E+10-7.83145E+10 4.02383E+10
 -1       286-1.67684E+10-4.43263E+10-1.86977E+12 7.94419E+09-3.44098E+10 8.10699E+09
 -1       287-1.77421E+10-4.61022E+10-1.90813E+12-4.50023E+08-2.54416E+10 1.01430E+10
 -1       288 2.47587E+10 5.84142E+10-2.01424E+12-1.27807E+10-9.75022E+09 7.22467E+09
 -1       289-2.53527E+09-9.40091E+09-8.97390E+11 8.64605E+09-9.53453E+10 1.66058E+09
 -1       290 3.14604E+09 8.53462E+09-1.51224E+12-2.36869E+09-4.16467E+10 8.10398E+09
 -1       291 3.38719E+09 9.50762E+09-1.53736E+12-2.81966E+08-3.35520E+10 8.51848E+09
 -1       292-3.99090E+09-1.08200E+10-1.68674E+12 3.34213E+09-9.82079E+09 6.34294E+09
 -1       293-9.94188E+08-9.93681E+08-7.33386E+11-2.18903E+09-9.04553E+10 2.71214E+09
 -1       294-2.92132E+08-1.87901E+09-1.18147E+12 5.68649E+08-3.87382E+10 7.54252E+09
 -1       295-6.86906E+07-1.93723E+09-1.20154E+12-2.26409E+07-3.05690E+10 8.24770E+09
 -1       296 1.11197E+09 3.44417E+09-1.34690E+12-8.92588E+08-9.27686E+09 6.73515E+09
 -1       297 1.22786E+08 9.48804E+07-5.70688E+11 5.62905E+08-8.70641E+10 2.31175E+09
 -1       298 1.19417E+09 1.72577E+09-8.68287E+11-1.76806E+08-3.62016E+10 6.94185E+09
 -1       299 1.44271E+09 1.73961E+09-8.82655E+11-1.09491E+08-2.87355E+10 7.57712E+09
 -1       300-1.99131E+08-2.04198E+08-1.02464E+12 1.08052E+08-8.43309E+09 6.30564E+09
 -1       301 7.27917E+07 3.90315E+08-4.20800E+11-1.39346E+08-8.00330E+10 2.15329E+09
 -1       302 1.26829E+09 1.30481E+09-5.86589E+11 2.21288E+07-3.17132E+10 6.12198E+09
 -1       303 1.61426E+09 1.29389E+09-5.95874E+11-1.15617E+08-2.51226E+10 6.67215E+09
 -1       304 5.97286E+07 9.13121E+08-7.27599E+11-2.11106E+08-7.69198E+09 5.66635E+09
 -1       305 1.47020E+08 5.12711E+08-2.85066E+11 4.39246E+07-7.04444E+10 1.89808E+09
 -1       306 1.71180E+09 1.93112E+09-3.45910E+11-3.97002E+07-2.60385E+10 5.02488E+09
 -1       307 2.14799E+09 1.91390E+09-3.50793E+11-1.56835E+08-2.06380E+10 5.47657E+09
 -1       308 1.22052E+07 9.22952E+08-4.66279E+11-1.88766E+08-6.53028E+09 4.85187E+09
 -1       309 1.84931E+08 6.70759E+08-1.69465E+11-1.43104E+06-5.77354E+10 1.55636E+09
 -1       310 2.08224E+09 2.31781E+09-1.58284E+11-2.49227E+07-1.88233E+10 3.63076E+09
 -1       311 2.62444E+09 2.30795E+09-1.59650E+11-1.92253E+08-1.49028E+10 3.98626E+09
 -1       312 2.41343E+07 1.20743E+09-2.52176E+11-2.56215E+08-5.07378E+09 3.76828E+09
 -1       313 2.15772E+08 8.21829E+08-7.94672E+10 1.64422E+07-4.18458E+10 1.11259E+09
 -1       314 2.32229E+09 2.67713E+09-3.60417E+10-9.07393E+07-1.03042E+10 1.95924E+09
 -1       315 2.98864E+09 2.61970E+09-3.49798E+10-2.51717E+08-8.19260E+09 2.09200E+09
 -1       316 2.61555E+07 1.49939E+09-9.70405E+10-3.17870E+08-3.36975E+09 2.50573E+09
 -1       317 3.06982E+08 1.05245E+09-2.07902E+10-3.32467E+07-2.26273E+10 6.29263E+08
 -1       318 2.29752E+09 3.21577E+09 9.33136E+09-1.98484E+08-2.12977E+09 2.74752E+08
 -1       319 2.86557E+09 3.15489E+09 1.00415E+10-3.32703E+08-1.49204E+09 1.44807E+08
 -1       320 1.65376E+08 1.54018E+09-1.30788E+10-2.86778E+08-8.97919E+08 7.43323E+08
 -1       321 2.14614E+08 1.51765E+09 1.14642E+09-1.92889E+08-3.70728E+09 8.85199E+07
 -3
    1PSTEP                         3           1           1          
    1PGM                1.000000E+00                                  
    1PGK                2.768264E+07                                  
    1PHID                         -1                                  
    1PSUBC                         0                                  
    1PMODE                         1                                  
  100CL  101 837.3825237         321                     2    1MODAL      1
 -4  TOSTRAIN    6    1
 -5  EXX         1    4    1    1
 -5  EYY         1    4    2    2
 -5  EZZ         1    4    3    3
 -5  EXY         1    4    1    2
 -5  EYZ         1    4    2    3
 -5  EZX         1    4    3    1
 -1         1 5.40957E-05 6.22211E-05 1.05289E+01-3.34924E-08-3.91426E-01-2.56587E+00
 -1         2-2.13978E-06-1.87979E-06-3.37611E-01 1.12521E-07 1.06539E+00 5.31772E-02
 -1         3 1.23023E-01 1.01449E-01-3.84752E-01 2.11592E-01-9.51862E-01-8.81949E-03
 -1         4-3.06572E+00-3.40776E+00 1.07726E+01 2.73117E-01-1.00103E-01 4.72881E-01
 -1         5 5.63443E-05 6.41372E-05 1.01194E+01-3.75398E-09-1.59392E+00-3.55442E-02
 -1         6-1.02349E-16 1.12410E-15 4.62824E-15 8.74084E-16-6.17081E-02 2.05874E-03
 -1         7 1.52465E-14-4.44089E-14 1.15394E-14-6.85736E-14-7.36653E-01 2.45766E-02
 -1         8-3.04081E+00-3.68747E+00 1.15324E+01-7.05925E-03 2.64353E-01 3.17566E-02
 -1         9-6.05217E-05-6.62514E-05 5.03076E+00-4.17613E-06 4.69493E-01-1.25389E+00
 -1        10 1.00206E-01 1.10908E-01-3.74899E-01-4.23374E-01-1.09664E-01 2.46579E-02
 -1        11-1.47855E+00-1.28720E+00 5.15750E+00 2.36064E-01-4.84804E-01 2.49095E-01
 -1        12-3.29690E+00-2.83900E+00 1.07653E+01-3.92113E-01-1.75488E-01-5.82763E-01
 -1        13-6.03410E-05-6.20957E-05 1.03165E+01-2.30424E-06-1.11912E+00-1.30070E+00
 -1        14 2.27024E-06 2.09499E-06-1.66121E-01-2.27382E-06 3.74514E-01 2.30368E-02
 -1        15 4.97116E-02 5.09613E-02-1.91461E-01-1.28897E-02-8.94053E-01 6.60600E-03
 -1        16-3.06560E+00-3.54423E+00 1.11632E+01 4.26845E-02 3.15516E-02 1.79926E-01
 -1        17-6.27946E-05-6.80475E-05 4.97926E+00 7.58604E-08-6.90498E-01-1.24948E-02
 -1        18 1.52482E-15 8.21565E-15 4.88498E-15-1.87558E-14-6.89938E-01 2.30181E-02
 -1        19-1.52750E+00-1.49004E+00 5.73878E+00 4.30035E-04-1.98006E-01 2.98279E-02
 -1        20-3.32432E+00-3.00355E+00 1.12371E+01 1.41248E-02-7.39088E-01 3.65867E-03
 -1        21 8.59056E-02 9.21715E-02-3.05238E-01-6.14066E-02-9.05271E-01 6.47015E-03
 -1        22-2.65458E+00-2.48398E+00 8.81641E+00-4.91783E-02-2.13013E-01 5.01861E-02
 -1        23-6.77115E-14-3.03993E-14 7.21489E-14-1.01643E-13-7.38008E-01 2.46219E-02
 -1        24-2.76272E+00-2.57491E+00 9.14910E+00 2.04868E-03-1.93934E-01 3.02022E-02
 -1        25 1.08231E-01 9.87345E-02-3.32614E-01 7.28345E-02-6.27424E-01-9.90050E-04
 -1        26-1.28334E+00-1.24084E+00 4.25624E+00-5.35232E-02-5.90233E-01 1.02798E-02
 -1        27-2.91194E+00-3.12028E+00 9.71044E+00 7.91187E-02-6.03585E-02 4.47242E-02
 -1        28 4.51513E-02 4.60551E-02-1.53089E-01-7.32829E-03-7.75942E-01 1.66310E-02
 -1        29-2.70727E+00-2.53171E+00 8.99513E+00 2.78586E-03-1.57496E-01 6.27898E-02
 -1        30 2.49800E-16 1.93942E-14 3.37022E-14 6.76889E-15-5.50208E-01 1.83564E-02
 -1        31-1.38044E+00-1.35335E+00 4.58865E+00 2.44491E-04-4.98492E-01 2.58874E-02
 -1        32-2.95944E+00-3.24407E+00 9.96966E+00-2.42995E-03 2.96755E-02 2.09325E-02
 -1        33 7.60300E-02 7.45021E-02-2.49038E-01 1.35006E-02-8.37462E-01 7.03800E-03
 -1        34-2.16313E+00-2.19649E+00 7.21784E+00 1.46633E-02-2.57813E-01 5.01675E-02
 -1        35-2.98360E-13 1.64552E-13 3.29615E-14-1.80349E-13-7.00275E-01 2.33630E-02
 -1        36-2.23310E+00-2.27890E+00 7.46458E+00-4.50415E-04-2.10955E-01 2.79399E-02
 -1        37 8.11831E-02 8.32705E-02-2.76639E-01-1.89776E-02-6.60837E-01 7.29423E-04
 -1        38-1.04438E+00-1.04438E+00 3.48947E+00 1.35512E-02-5.59962E-01 1.67894E-02
 -1        39-2.40608E+00-2.36381E+00 8.01094E+00-2.06894E-02-6.07954E-02 3.92658E-02
 -1        40 3.73999E-02 3.72775E-02-1.24587E-01-2.48902E-04-7.42805E-01 1.55769E-02
 -1        41-2.19877E+00-2.23666E+00 7.33918E+00 1.74550E-03-2.07703E-01 5.27334E-02
 -1        42-9.78419E-14-9.64714E-14 6.99475E-14-2.10614E-13-5.15335E-01 1.71929E-02
 -1        43-1.11735E+00-1.12101E+00 3.73433E+00 8.30400E-06-4.66896E-01 2.47819E-02
 -1        44-2.49592E+00-2.43336E+00 8.29190E+00 6.33141E-04-2.18635E-02 2.20472E-02
 -1        45 5.78875E-02 5.83488E-02-1.94020E-01-3.83181E-03-8.05383E-01 6.59662E-03
 -1        46-1.68910E+00-1.67928E+00 5.62293E+00-3.52021E-03-2.39808E-01 4.66918E-02
 -1        47-4.82084E-14 5.03939E-13-1.50784E-13-3.33758E-13-6.73526E-01 2.24706E-02
 -1        48-1.74893E+00-1.73510E+00 5.81548E+00 1.27839E-04-1.97725E-01 2.68697E-02
 -1        49 6.69535E-02 6.63730E-02-2.21514E-01 5.37117E-03-6.27188E-01 3.75768E-04
 -1        50-8.15718E-01-8.15545E-01 2.71787E+00-3.48465E-03-5.38968E-01 1.43109E-02
 -1        51-1.92451E+00-1.93895E+00 6.42030E+00 5.52554E-03-5.74282E-02 4.16938E-02
 -1        52 2.91397E-02 2.91783E-02-9.71150E-02 1.32306E-04-7.10226E-01 1.50707E-02
 -1        53-1.71893E+00-1.70736E+00 5.71875E+00 1.40158E-04-1.89237E-01 5.10572E-02
 -1        54-7.70295E-14-1.38708E-13 5.31172E-15-2.36825E-13-4.94229E-01 1.64887E-02
 -1        55-8.74580E-01-8.73424E-01 2.91090E+00-4.41406E-06-4.51724E-01 2.36950E-02
 -1        56-1.98945E+00-2.00684E+00 6.63959E+00-1.79196E-04-1.12632E-02 2.09246E-02
 -1        57 4.29807E-02 4.29361E-02-1.42761E-01 5.85976E-04-7.38950E-01 6.15078E-03
 -1        58-1.24363E+00-1.24692E+00 4.13887E+00 1.09451E-03-2.24105E-01 4.29734E-02
 -1        59-2.93034E-13-7.12271E-13 2.97584E-13-4.23720E-13-6.17990E-01 2.06178E-02
 -1        60-1.28695E+00-1.28829E+00 4.27908E+00-1.95497E-05-1.84362E-01 2.46533E-02
 -1        61 5.04192E-02 5.05337E-02-1.68320E-01-9.02565E-04-5.92115E-01 3.61490E-04
 -1        62-6.00932E-01-6.02897E-01 2.00447E+00 8.62615E-04-4.95442E-01 1.33299E-02
 -1        63-1.46311E+00-1.46308E+00 4.87865E+00-6.68895E-04-5.22048E-02 3.90349E-02
 -1        64 2.15018E-02 2.14878E-02-7.15551E-02 2.82687E-04-6.52540E-01 1.38333E-02
 -1        65-1.26532E+00-1.26716E+00 4.20766E+00 6.77804E-04-1.77886E-01 4.69060E-02
 -1        66-1.04176E-13-1.88383E-13 5.89806E-15-2.45387E-13-4.65482E-01 1.55297E-02
 -1        67-6.44068E-01-6.44488E-01 2.14477E+00-9.43118E-06-4.14636E-01 2.17704E-02
 -1        68-1.51468E+00-1.51125E+00 5.04518E+00 3.01119E-05-1.08352E-02 1.97545E-02
 -1        69 2.89834E-02 2.90963E-02-9.64211E-02-5.95949E-04-6.50795E-01 5.38618E-03
 -1        70-8.42160E-01-8.42386E-01 2.79696E+00-1.36988E-04-1.96320E-01 3.78980E-02
 -1        71-5.58089E-13 6.97155E-13-1.21240E-13-1.10090E-12-5.44342E-01 1.81607E-02
 -1        72-8.72123E-01-8.68739E-01 2.89010E+00 1.98824E-05-1.61444E-01 2.17122E-02
 -1        73 3.59448E-02 3.58652E-02-1.19530E-01 8.51209E-04-5.32618E-01 3.35399E-04
 -1        74-4.07205E-01-4.09469E-01 1.35840E+00-2.71914E-04-4.36084E-01 1.17500E-02
 -1        75-1.03841E+00-1.04369E+00 3.46615E+00 1.30685E-03-4.76170E-02 3.50774E-02
 -1        76 1.45728E-02 1.45682E-02-4.84325E-02 4.39440E-04-5.74533E-01 1.21799E-02
 -1        77-8.57087E-01-8.55104E-01 2.84165E+00 7.15724E-04-1.55521E-01 4.13038E-02
 -1        78 8.78455E-14 4.66126E-13-3.59955E-15-5.54813E-13-4.18698E-01 1.39689E-02
 -1        79-4.36663E-01-4.36801E-01 1.45170E+00-1.46608E-05-3.65077E-01 1.91679E-02
 -1        80-1.07501E+00-1.07740E+00 3.58276E+00-2.83985E-05-1.00532E-02 1.77695E-02
 -1        81 1.71738E-02 1.72775E-02-5.68837E-02-4.46787E-04-5.33233E-01 4.42261E-03
 -1        82-4.99549E-01-5.00907E-01 1.65239E+00 2.45763E-04-1.61191E-01 3.11064E-02
 -1        83-1.61363E-12 1.39468E-12 4.07239E-13-8.23101E-13-4.45956E-01 1.48782E-02
 -1        84-5.17871E-01-5.14762E-01 1.70501E+00 1.49060E-05-1.32562E-01 1.77900E-02
 -1        85 2.30331E-02 2.29851E-02-7.65497E-02 6.34580E-04-4.54019E-01 2.79610E-04
 -1        86-2.42015E-01-2.45023E-01 8.08198E-01 8.85881E-06-3.57410E-01 9.63458E-03
 -1        87-6.64853E-01-6.70491E-01 2.22171E+00 1.16855E-03-4.04255E-02 3.00354E-02
 -1        88 8.67415E-03 8.66566E-03-2.87269E-02 5.39532E-04-4.70770E-01 9.98081E-03
 -1        89-5.08627E-01-5.07178E-01 1.67624E+00 9.70886E-04-1.27759E-01 3.39026E-02
 -1        90-7.16194E-13 1.28592E-12 7.72542E-14-3.92689E-13-3.56880E-01 1.19064E-02
 -1        91-2.59742E-01-2.59996E-01 8.61052E-01-1.80002E-05-2.99162E-01 1.57061E-02
 -1        92-6.88950E-01-6.90386E-01 2.29448E+00-2.11712E-05-8.38096E-03 1.51472E-02
 -1        93 7.94409E-03 8.07594E-03-2.60536E-02-6.05453E-04-3.86755E-01 3.19692E-03
 -1        94-2.32725E-01-2.34183E-01 7.60021E-01 1.54284E-04-1.16525E-01 2.24761E-02
 -1        95-6.97243E-14 6.11538E-13-4.22810E-13-2.73719E-13-3.23317E-01 1.07867E-02
 -1        96-2.42066E-01-2.38114E-01 7.80922E-01 2.01995E-05-9.58234E-02 1.29032E-02
 -1        97 1.24986E-02 1.24246E-02-4.13419E-02 8.96484E-04-3.52923E-01 2.16475E-04
 -1        98-1.13378E-01-1.17130E-01 3.79897E-01-1.01785E-04-2.59045E-01 6.88746E-03
 -1        99-3.58641E-01-3.65967E-01 1.20260E+00 1.58609E-03-3.14091E-02 2.33275E-02
 -1       100 4.08249E-03 4.07002E-03-1.33776E-02 6.93301E-04-3.41341E-01 7.23215E-03
 -1       101-2.37271E-01-2.35312E-01 7.67283E-01 1.19014E-03-9.22552E-02 2.46769E-02
 -1       102-5.62787E-13 1.06518E-12 1.05502E-13-8.78864E-13-2.77317E-01 9.25202E-03
 -1       103-1.21994E-01-1.22367E-01 4.00977E-01-2.31303E-05-2.16774E-01 1.13880E-02
 -1       104-3.72411E-01-3.74630E-01 1.23917E+00-2.99090E-05-6.48854E-03 1.17744E-02
 -1       105 1.91747E-03 2.08566E-03-5.91151E-03-5.32786E-04-2.08393E-01 1.74410E-03
 -1       106-5.87223E-02-6.09189E-02 1.78769E-01 5.61720E-04-6.37882E-02 1.21286E-02
 -1       107-4.53389E-13-2.34950E-12 3.40607E-13-2.77400E-12-1.74283E-01 5.81454E-03
 -1       108-6.25149E-02-5.74737E-02 1.77190E-01 1.77751E-05-5.22770E-02 6.95253E-03
 -1       109 4.86233E-03 4.77444E-03-1.58286E-02 1.05938E-03-2.28229E-01 1.46280E-04
 -1       110-2.96585E-02-3.42734E-02 1.00943E-01 2.05813E-04-1.40074E-01 3.89544E-03
 -1       111-1.36612E-01-1.45732E-01 4.64277E-01 1.96777E-03-2.08604E-02 1.55116E-02
 -1       112 1.09187E-03 1.08365E-03-3.35508E-03 9.27580E-04-1.84086E-01 3.90770E-03
 -1       113-6.04604E-02-5.81765E-02 1.74583E-01 1.55825E-03-5.07161E-02 1.29505E-02
 -1       114-6.04146E-14-8.33320E-14 1.24499E-13-9.54635E-13-1.79328E-01 5.98285E-03
 -1       115-3.24809E-02-3.27273E-02 1.00564E-01-3.09465E-05-1.17128E-01 6.14159E-03
 -1       116-1.43108E-01-1.45742E-01 4.74443E-01-3.53437E-05-4.38456E-03 7.61432E-03
 -1       117-1.44125E-04-1.01381E-04 1.18616E-03 1.13960E-03-2.85816E-02 3.59474E-04
 -1       118 6.98388E-03 1.29948E-03-3.65589E-02 1.22871E-03-1.31843E-02 1.70085E-03
 -1       119 2.35067E-12-2.68500E-12-5.02109E-13-1.17284E-12-2.18929E-02 7.30404E-04
 -1       120 3.03877E-03 4.31997E-03-3.55536E-02-3.80199E-05-1.07748E-02 9.53556E-04
 -1       121 7.53902E-04 7.00482E-04-2.12685E-03 1.04399E-03-8.36118E-02 1.62343E-05
 -1       122 2.78384E-03-5.28257E-03-2.98446E-03 1.19407E-03-2.29498E-02 5.47980E-04
 -1       123-1.72713E-02-2.57820E-02 6.47166E-02 1.77529E-03-5.55855E-03 4.60153E-03
 -1       124 9.33732E-05-3.01219E-05 1.82286E-04 2.02835E-03-2.24081E-02 6.11532E-04
 -1       125 5.20647E-03 3.41544E-03-3.92162E-02 2.05959E-03-9.23642E-03 8.96425E-04
 -1       126 8.39303E-13 3.17616E-13-1.32074E-13-1.71969E-12-6.48274E-02 2.16281E-03
 -1       127 9.02864E-04-2.79874E-03-5.46379E-03-6.76710E-05-1.83299E-02 7.47591E-04
 -1       128-2.09960E-02-2.25972E-02 6.37497E-02-3.48303E-05-4.86601E-04 2.78951E-03
 -1       129 5.83726E-05 6.59734E-05 1.12556E+01 3.58043E-08-5.63697E-01 2.59773E+00
 -1       130 2.13978E-06 1.87979E-06 3.37611E-01-1.12521E-07 1.06539E+00 5.31772E-02
 -1       131-1.23023E-01-1.01449E-01 3.84752E-01-2.11592E-01-9.51862E-01-8.81949E-03
 -1       132-3.30019E+00-3.62014E+00 1.15162E+01-2.91970E-01-6.87383E-02-4.67248E-01
 -1       133-6.49010E-05-6.62769E-05 1.06756E+01 2.58834E-06-1.20537E+00 1.27224E+00
 -1       134-2.27024E-06-2.09499E-06 1.66121E-01 2.27382E-06 3.74514E-01 2.30368E-02
 -1       135-4.97116E-02-5.09613E-02 1.91461E-01 1.28897E-02-8.94053E-01 6.60600E-03
 -1       136-3.15842E+00-3.65089E+00 1.15326E+01-5.85486E-02 4.82613E-02-1.47942E-01
 -1       137-6.48046E-05-7.04298E-05 5.73111E+00 4.33936E-06 3.83653E-01 1.33144E+00
 -1       138-1.00206E-01-1.10908E-01 3.74899E-01 4.23374E-01-1.09664E-01 2.46579E-02
 -1       139-1.71859E+00-1.49485E+00 5.91469E+00-2.39441E-01-4.73865E-01-2.51757E-01
 -1       140-3.49389E+00-3.06556E+00 1.15084E+01 4.19179E-01-2.14808E-01 5.95784E-01
 -1       141-8.59056E-02-9.21715E-02 3.05238E-01 6.14066E-02-9.05271E-01 6.47015E-03
 -1       142-2.82642E+00-2.66684E+00 9.42499E+00 5.25730E-02-2.10135E-01-3.60688E-02
 -1       143-4.51513E-02-4.60551E-02 1.53089E-01 7.32829E-03-7.75942E-01 1.66310E-02
 -1       144-2.79620E+00-2.62308E+00 9.29949E+00 7.83255E-04-1.57160E-01-2.35025E-02
 -1       145-1.08231E-01-9.87345E-02 3.32614E-01-7.28345E-02-6.27424E-01-9.90050E-04
 -1       146-1.45532E+00-1.42445E+00 4.86659E+00 5.34564E-02-5.87354E-01 2.17916E-04
 -1       147-3.12686E+00-3.32175E+00 1.03807E+01-8.45801E-02-5.75055E-02-4.07919E-02
 -1       148-7.60300E-02-7.45021E-02 2.49038E-01-1.35006E-02-8.37462E-01 7.03800E-03
 -1       149-2.31468E+00-2.34588E+00 7.71607E+00-1.56755E-02-2.55036E-01-3.30575E-02
 -1       150-3.73999E-02-3.72775E-02 1.24587E-01 2.48902E-04-7.42805E-01 1.55769E-02
 -1       151-2.27344E+00-2.31141E+00 7.58863E+00-2.65461E-03-2.07044E-01-1.54458E-02
 -1       152-8.11831E-02-8.32705E-02 2.76639E-01 1.89776E-02-6.60837E-01 7.29423E-04
 -1       153-1.19611E+00-1.19359E+00 3.98750E+00-1.36980E-02-5.57687E-01-2.95239E-03
 -1       154-2.56935E+00-2.52980E+00 8.56392E+00 2.21175E-02-5.83079E-02-3.52922E-02
 -1       155-5.78875E-02-5.83488E-02 1.94020E-01 3.83181E-03-8.05383E-01 6.59662E-03
 -1       156-1.80504E+00-1.79585E+00 6.01107E+00 3.76320E-03-2.37223E-01-3.07768E-02
 -1       157-2.91397E-02-2.91783E-02 9.71150E-02-1.32306E-04-7.10226E-01 1.50707E-02
 -1       158-1.77723E+00-1.76565E+00 5.91305E+00 9.23027E-05-1.88702E-01-1.51681E-02
 -1       159-6.69535E-02-6.63730E-02 2.21514E-01-5.37117E-03-6.27188E-01 3.75768E-04
 -1       160-9.31586E-01-9.32186E-01 3.10594E+00 3.48305E-03-5.36759E-01-1.70182E-03
 -1       161-2.05832E+00-2.07183E+00 6.86349E+00-5.90696E-03-5.47710E-02-3.79505E-02
 -1       162-4.29807E-02-4.29361E-02 1.42761E-01-5.85976E-04-7.38950E-01 6.15078E-03
 -1       163-1.32970E+00-1.33278E+00 4.42457E+00-1.17007E-03-2.21734E-01-2.80990E-02
 -1       164-2.15018E-02-2.14878E-02 7.15551E-02-2.82687E-04-6.52540E-01 1.38333E-02
 -1       165-1.30841E+00-1.31012E+00 4.35094E+00-7.36937E-04-1.77392E-01-1.39152E-02
 -1       166-5.04192E-02-5.05337E-02 1.68320E-01 9.02565E-04-5.92115E-01 3.61490E-04
 -1       167-6.86916E-01-6.88764E-01 2.29001E+00-9.09815E-04-4.93413E-01-1.47689E-03
 -1       168-1.56410E+00-1.56408E+00 5.21541E+00 7.15068E-04-4.97137E-02-3.56347E-02
 -1       169-2.89834E-02-2.90963E-02 9.64211E-02 5.95949E-04-6.50795E-01 5.38618E-03
 -1       170-9.00308E-01-9.00520E-01 2.99003E+00 1.46444E-04-1.94225E-01-2.48684E-02
 -1       171-1.45728E-02-1.45682E-02 4.84325E-02-4.39440E-04-5.74533E-01 1.21799E-02
 -1       172-8.86350E-01-8.84211E-01 2.93872E+00-6.99155E-04-1.55082E-01-1.22656E-02
 -1       173-3.59448E-02-3.58652E-02 1.19530E-01-8.51209E-04-5.32618E-01 3.35399E-04
 -1       174-4.65233E-01-4.67634E-01 1.55125E+00 2.24710E-04-4.34297E-01-1.38753E-03
 -1       175-1.11044E+00-1.11538E+00 3.70541E+00-1.39706E-03-4.53800E-02-3.19748E-02
 -1       176-1.71738E-02-1.72775E-02 5.68837E-02 4.46787E-04-5.33233E-01 4.42261E-03
 -1       177-5.34123E-01-5.35393E-01 1.76645E+00-2.62728E-04-1.59472E-01-2.04082E-02
 -1       178-8.67415E-03-8.66566E-03 2.87269E-02-5.39532E-04-4.70770E-01 9.98081E-03
 -1       179-5.26128E-01-5.24475E-01 1.73397E+00-9.73641E-04-1.27400E-01-1.01033E-02
 -1       180-2.30331E-02-2.29851E-02 7.65497E-02-6.34580E-04-4.54019E-01 2.79610E-04
 -1       181-2.76434E-01-2.79545E-01 9.21972E-01-7.37332E-05-3.55941E-01-1.12181E-03
 -1       182-7.11123E-01-7.16397E-01 2.37507E+00-1.24921E-03-3.85093E-02-2.74019E-02
 -1       183-7.94409E-03-8.07594E-03 2.60536E-02 6.05453E-04-3.86755E-01 3.19692E-03
 -1       184-2.48887E-01-2.50251E-01 8.12484E-01-1.64933E-04-1.15283E-01-1.47424E-02
 -1       185-4.08249E-03-4.07002E-03 1.33776E-02-6.93301E-04-3.41341E-01 7.23215E-03
 -1       186-2.45624E-01-2.43410E-01 7.94370E-01-1.18599E-03-9.20008E-02-7.42777E-03
 -1       187-1.24986E-02-1.24246E-02 4.13419E-02-8.96484E-04-3.52923E-01 2.16475E-04
 -1       188-1.29349E-01-1.33240E-01 4.31998E-01 2.25115E-05-2.57974E-01-7.40199E-04
 -1       189-3.83887E-01-3.90739E-01 1.28561E+00-1.69558E-03-2.99208E-02-2.12813E-02
 -1       190-1.91747E-03-2.08566E-03 5.91151E-03 5.32786E-04-2.08393E-01 1.74410E-03
 -1       191-6.29225E-02-6.49773E-02 1.91109E-01-6.00494E-04-6.31202E-02-7.89466E-03
 -1       192-1.09187E-03-1.08365E-03 3.35508E-03-9.27580E-04-1.84086E-01 3.90770E-03
 -1       193-6.28846E-02-6.02873E-02 1.81715E-01-1.57547E-03-5.05689E-02-3.62251E-03
 -1       194-4.86233E-03-4.77444E-03 1.58286E-02-1.05938E-03-2.28229E-01 1.46280E-04
 -1       195-3.36108E-02-3.83885E-02 1.12830E-01-3.10362E-04-1.39521E-01-5.16308E-04
 -1       196-1.46651E-01-1.55182E-01 4.96325E-01-2.10360E-03-1.98707E-02-1.41527E-02
 -1       197 1.44125E-04 1.01381E-04-1.18616E-03-1.13960E-03-2.85816E-02 3.59474E-04
 -1       198 7.08625E-03 1.76889E-03-3.90825E-02-1.31353E-03-1.31000E-02-8.23935E-04
 -1       199-9.33732E-05 3.01219E-05-1.82286E-04-2.02835E-03-2.24081E-02 6.11532E-04
 -1       200 4.86520E-03 3.60901E-03-3.95029E-02-2.14394E-03-9.22040E-03 6.34615E-04
 -1       201-7.53902E-04-7.00482E-04 2.12685E-03-1.04399E-03-8.36118E-02 1.62343E-05
 -1       202 3.01819E-03-4.94655E-03-5.61074E-03-1.33431E-03-2.29411E-02 6.77874E-05
 -1       203-1.90320E-02-2.69931E-02 6.91839E-02-1.89784E-03-5.26356E-03-4.24047E-03
 -1       204-5.83726E-05-6.59734E-05-1.12556E+01-3.58043E-08-5.63697E-01 2.59773E+00
 -1       205 3.30019E+00 3.62014E+00-1.15162E+01 2.91970E-01-6.87383E-02-4.67248E-01
 -1       206-5.63443E-05-6.41372E-05-1.01194E+01 3.75398E-09-1.59392E+00-3.55442E-02
 -1       207 3.04081E+00 3.68747E+00-1.15324E+01 7.05925E-03 2.64353E-01 3.17566E-02
 -1       208 6.48046E-05 7.04298E-05-5.73111E+00-4.33936E-06 3.83653E-01 1.33144E+00
 -1       209 3.49389E+00 3.06556E+00-1.15084E+01-4.19179E-01-2.14808E-01 5.95784E-01
 -1       210 1.71859E+00 1.49485E+00-5.91469E+00 2.39441E-01-4.73865E-01-2.51757E-01
 -1       211 6.49010E-05 6.62769E-05-1.06756E+01-2.58834E-06-1.20537E+00 1.27224E+00
 -1       212 3.15842E+00 3.65089E+00-1.15326E+01 5.85486E-02 4.82613E-02-1.47942E-01
 -1       213 6.27946E-05 6.80475E-05-4.97926E+00-7.58604E-08-6.90498E-01-1.24948E-02
 -1       214 3.32432E+00 3.00355E+00-1.12371E+01-1.41248E-02-7.39088E-01 3.65867E-03
 -1       215 1.52750E+00 1.49004E+00-5.73878E+00-4.30035E-04-1.98006E-01 2.98279E-02
 -1       216 2.82642E+00 2.66684E+00-9.42499E+00-5.25730E-02-2.10135E-01-3.60688E-02
 -1       217 2.76272E+00 2.57491E+00-9.14910E+00-2.04868E-03-1.93934E-01 3.02022E-02
 -1       218 3.12686E+00 3.32175E+00-1.03807E+01 8.45801E-02-5.75055E-02-4.07919E-02
 -1       219 1.45532E+00 1.42445E+00-4.86659E+00-5.34564E-02-5.87354E-01 2.17916E-04
 -1       220 2.79620E+00 2.62308E+00-9.29949E+00-7.83255E-04-1.57160E-01-2.35025E-02
 -1       221 2.95944E+00 3.24407E+00-9.96966E+00 2.42995E-03 2.96755E-02 2.09325E-02
 -1       222 1.38044E+00 1.35335E+00-4.58865E+00-2.44491E-04-4.98492E-01 2.58874E-02
 -1       223 2.31468E+00 2.34588E+00-7.71607E+00 1.56755E-02-2.55036E-01-3.30575E-02
 -1       224 2.23310E+00 2.27890E+00-7.46458E+00 4.50415E-04-2.10955E-01 2.79399E-02
 -1       225 2.56935E+00 2.52980E+00-8.56392E+00-2.21175E-02-5.83079E-02-3.52922E-02
 -1       226 1.19611E+00 1.19359E+00-3.98750E+00 1.36980E-02-5.57687E-01-2.95239E-03
 -1       227 2.27344E+00 2.31141E+00-7.58863E+00 2.65461E-03-2.07044E-01-1.54458E-02
 -1       228 2.49592E+00 2.43336E+00-8.29190E+00-6.33141E-04-2.18635E-02 2.20472E-02
 -1       229 1.11735E+00 1.12101E+00-3.73433E+00-8.30401E-06-4.66896E-01 2.47819E-02
 -1       230 1.80504E+00 1.79585E+00-6.01107E+00-3.76320E-03-2.37223E-01-3.07768E-02
 -1       231 1.74893E+00 1.73510E+00-5.81548E+00-1.27839E-04-1.97725E-01 2.68697E-02
 -1       232 2.05832E+00 2.07183E+00-6.86349E+00 5.90696E-03-5.47710E-02-3.79505E-02
 -1       233 9.31586E-01 9.32186E-01-3.10594E+00-3.48305E-03-5.36759E-01-1.70182E-03
 -1       234 1.77723E+00 1.76565E+00-5.91305E+00-9.23027E-05-1.88702E-01-1.51681E-02
 -1       235 1.98945E+00 2.00684E+00-6.63959E+00 1.79196E-04-1.12632E-02 2.09246E-02
 -1       236 8.74580E-01 8.73424E-01-2.91090E+00 4.41406E-06-4.51724E-01 2.36950E-02
 -1       237 1.32970E+00 1.33278E+00-4.42457E+00 1.17007E-03-2.21734E-01-2.80990E-02
 -1       238 1.28695E+00 1.28829E+00-4.27908E+00 1.95497E-05-1.84362E-01 2.46533E-02
 -1       239 1.56410E+00 1.56408E+00-5.21541E+00-7.15068E-04-4.97137E-02-3.56347E-02
 -1       240 6.86916E-01 6.88764E-01-2.29001E+00 9.09815E-04-4.93413E-01-1.47689E-03
 -1       241 1.30841E+00 1.31012E+00-4.35094E+00 7.36937E-04-1.77392E-01-1.39152E-02
 -1       242 1.51468E+00 1.51125E+00-5.04518E+00-3.01119E-05-1.08352E-02 1.97545E-02
 -1       243 6.44068E-01 6.44488E-01-2.14477E+00 9.43118E-06-4.14636E-01 2.17704E-02
 -1       244 9.00308E-01 9.00520E-01-2.99003E+00-1.46444E-04-1.94225E-01-2.48684E-02
 -1       245 8.72123E-01 8.68739E-01-2.89010E+00-1.98824E-05-1.61444E-01 2.17122E-02
 -1       246 1.11044E+00 1.11538E+00-3.70541E+00 1.39706E-03-4.53800E-02-3.19748E-02
 -1       247 4.65233E-01 4.67634E-01-1.55125E+00-2.24710E-04-4.34297E-01-1.38753E-03
 -1       248 8.86350E-01 8.84211E-01-2.93872E+00 6.99155E-04-1.55082E-01-1.22656E-02
 -1       249 1.07501E+00 1.07740E+00-3.58276E+00 2.83985E-05-1.00532E-02 1.77695E-02
 -1       250 4.36663E-01 4.36801E-01-1.45170E+00 1.46608E-05-3.65077E-01 1.91679E-02
 -1       251 5.34123E-01 5.35393E-01-1.76645E+00 2.62728E-04-1.59472E-01-2.04082E-02
 -1       252 5.17871E-01 5.14762E-01-1.70501E+00-1.49060E-05-1.32562E-01 1.77900E-02
 -1       253 7.11123E-01 7.16397E-01-2.37507E+00 1.24921E-03-3.85093E-02-2.74019E-02
 -1       254 2.76434E-01 2.79545E-01-9.21972E-01 7.37332E-05-3.55941E-01-1.12181E-03
 -1       255 5.26128E-01 5.24475E-01-1.73397E+00 9.73641E-04-1.27400E-01-1.01033E-02
 -1       256 6.88950E-01 6.90386E-01-2.29448E+00 2.11712E-05-8.38096E-03 1.51472E-02
 -1       257 2.59742E-01 2.59996E-01-8.61052E-01 1.80002E-05-2.99162E-01 1.57061E-02
 -1       258 2.48887E-01 2.50251E-01-8.12484E-01 1.64933E-04-1.15283E-01-1.47424E-02
 -1       259 2.42066E-01 2.38114E-01-7.80922E-01-2.01995E-05-9.58234E-02 1.29032E-02
 -1       260 3.83887E-01 3.90739E-01-1.28561E+00 1.69558E-03-2.99208E-02-2.12813E-02
 -1       261 1.29349E-01 1.33240E-01-4.31998E-01-2.25115E-05-2.57974E-01-7.40199E-04
 -1       262 2.45624E-01 2.43410E-01-7.94370E-01 1.18599E-03-9.20008E-02-7.42777E-03
 -1       263 3.72411E-01 3.74630E-01-1.23917E+00 2.99090E-05-6.48854E-03 1.17744E-02
 -1       264 1.21994E-01 1.22367E-01-4.00977E-01 2.31303E-05-2.16774E-01 1.13880E-02
 -1       265 6.29225E-02 6.49773E-02-1.91109E-01 6.00494E-04-6.31202E-02-7.89466E-03
 -1       266 6.25149E-02 5.74737E-02-1.77190E-01-1.77751E-05-5.22770E-02 6.95253E-03
 -1       267 1.46651E-01 1.55182E-01-4.96325E-01 2.10360E-03-1.98707E-02-1.41527E-02
 -1       268 3.36108E-02 3.83885E-02-1.12830E-01 3.10362E-04-1.39521E-01-5.16308E-04
 -1       269 6.28846E-02 6.02873E-02-1.81715E-01 1.57547E-03-5.05689E-02-3.62251E-03
 -1       270 1.43108E-01 1.45742E-01-4.74443E-01 3.53437E-05-4.38456E-03 7.61432E-03
 -1       271 3.24809E-02 3.27273E-02-1.00564E-01 3.09465E-05-1.17128E-01 6.14159E-03
 -1       272-7.08625E-03-1.76889E-03 3.90825E-02 1.31353E-03-1.31000E-02-8.23935E-04
 -1       273-3.03877E-03-4.31997E-03 3.55536E-02 3.80199E-05-1.07748E-02 9.53556E-04
 -1       274 1.90320E-02 2.69931E-02-6.91839E-02 1.89784E-03-5.26356E-03-4.24047E-03
 -1       275-3.01819E-03 4.94655E-03 5.61074E-03 1.33431E-03-2.29411E-02 6.77874E-05
 -1       276-4.86520E-03-3.60901E-03 3.95029E-02 2.14394E-03-9.22040E-03 6.34615E-04
 -1       277 2.09960E-02 2.25972E-02-6.37497E-02 3.48303E-05-4.86601E-04 2.78951E-03
 -1       278-9.02864E-04 2.79874E-03 5.46379E-03 6.76710E-05-1.83299E-02 7.47591E-04
 -1       279-5.40957E-05-6.22211E-05-1.05289E+01 3.34924E-08-3.91426E-01-2.56587E+00
 -1       280 3.06572E+00 3.40776E+00-1.07726E+01-2.73117E-01-1.00103E-01 4.72881E-01
 -1       281 6.03410E-05 6.20957E-05-1.03165E+01 2.30424E-06-1.11912E+00-1.30070E+00
 -1       282 3.06560E+00 3.54423E+00-1.11632E+01-4.26845E-02 3.15516E-02 1.79926E-01
 -1       283 6.05217E-05 6.62514E-05-5.03076E+00 4.17613E-06 4.69493E-01-1.25389E+00
 -1       284 3.29690E+00 2.83900E+00-1.07653E+01 3.92113E-01-1.75488E-01-5.82763E-01
 -1       285 1.47855E+00 1.28720E+00-5.15750E+00-2.36064E-01-4.84804E-01 2.49095E-01
 -1       286 2.65458E+00 2.48398E+00-8.81641E+00 4.91783E-02-2.13013E-01 5.01861E-02
 -1       287 2.70727E+00 2.53171E+00-8.99513E+00-2.78586E-03-1.57496E-01 6.27898E-02
 -1       288 2.91194E+00 3.12028E+00-9.71044E+00-7.91187E-02-6.03585E-02 4.47242E-02
 -1       289 1.28334E+00 1.24084E+00-4.25624E+00 5.35232E-02-5.90233E-01 1.02798E-02
 -1       290 2.16313E+00 2.19649E+00-7.21784E+00-1.46633E-02-2.57813E-01 5.01675E-02
 -1       291 2.19877E+00 2.23666E+00-7.33918E+00-1.74550E-03-2.07703E-01 5.27334E-02
 -1       292 2.40608E+00 2.36381E+00-8.01094E+00 2.06894E-02-6.07954E-02 3.92658E-02
 -1       293 1.04438E+00 1.04438E+00-3.48947E+00-1.35512E-02-5.59962E-01 1.67894E-02
 -1       294 1.68910E+00 1.67928E+00-5.62293E+00 3.52021E-03-2.39808E-01 4.66918E-02
 -1       295 1.71893E+00 1.70736E+00-5.71875E+00-1.40158E-04-1.89237E-01 5.10572E-02
 -1       296 1.92451E+00 1.93895E+00-6.42030E+00-5.52554E-03-5.74282E-02 4.16938E-02
 -1       297 8.15718E-01 8.15545E-01-2.71787E+00 3.48465E-03-5.38968E-01 1.43109E-02
 -1       298 1.24363E+00 1.24692E+00-4.13887E+00-1.09451E-03-2.24105E-01 4.29734E-02
 -1       299 1.26532E+00 1.26716E+00-4.20766E+00-6.77804E-04-1.77886E-01 4.69060E-02
 -1       300 1.46311E+00 1.46308E+00-4.87865E+00 6.68895E-04-5.22048E-02 3.90349E-02
 -1       301 6.00932E-01 6.02897E-01-2.00447E+00-8.62615E-04-4.95442E-01 1.33299E-02
 -1       302 8.42160E-01 8.42386E-01-2.79696E+00 1.36988E-04-1.96320E-01 3.78980E-02
 -1       303 8.57087E-01 8.55104E-01-2.84165E+00-7.15724E-04-1.55521E-01 4.13038E-02
 -1       304 1.03841E+00 1.04369E+00-3.46615E+00-1.30685E-03-4.76170E-02 3.50774E-02
 -1       305 4.07205E-01 4.09469E-01-1.35840E+00 2.71914E-04-4.36084E-01 1.17500E-02
 -1       306 4.99549E-01 5.00907E-01-1.65239E+00-2.45763E-04-1.61191E-01 3.11064E-02
 -1       307 5.08627E-01 5.07178E-01-1.67624E+00-9.70886E-04-1.27759E-01 3.39026E-02
 -1       308 6.64853E-01 6.70491E-01-2.22171E+00-1.16855E-03-4.04255E-02 3.00354E-02
 -1       309 2.42015E-01 2.45023E-01-8.08198E-01-8.85881E-06-3.57410E-01 9.63458E-03
 -1       310 2.32725E-01 2.34183E-01-7.60021E-01-1.54284E-04-1.16525E-01 2.24761E-02
 -1       311 2.37271E-01 2.35312E-01-7.67283E-01-1.19014E-03-9.22552E-02 2.46769E-02
 -1       312 3.58641E-01 3.65967E-01-1.20260E+00-1.58609E-03-3.14091E-02 2.33275E-02
 -1       313 1.13378E-01 1.17130E-01-3.79897E-01 1.01785E-04-2.59045E-01 6.88746E-03
 -1       314 5.87223E-02 6.09189E-02-1.78769E-01-5.61720E-04-6.37882E-02 1.21286E-02
 -1       315 6.04604E-02 5.81765E-02-1.74583E-01-1.55825E-03-5.07161E-02 1.29505E-02
 -1       316 1.36612E-01 1.45732E-01-4.64277E-01-1.96777E-03-2.08604E-02 1.55116E-02
 -1       317 2.96585E-02 3.42734E-02-1.00943E-01-2.05813E-04-1.40074E-01 3.89544E-03
 -1       318-6.98388E-03-1.29948E-03 3.65589E-02-1.22871E-03-1.31843E-02 1.70085E-03
 -1       319-5.20647E-03-3.41544E-03 3.92162E-02-2.05959E-03-9.23642E-03 8.96425E-04
 -1       320 1.72713E-02 2.57820E-02-6.47166E-02-1.77529E-03-5.55855E-03 4.60153E-03
 -1       321-2.78384E-03 5.28257E-03 2.98446E-03-1.19407E-03-2.29498E-02 5.47980E-04
 -3
    1PSTEP                         4           1           1          
    1PGM                1.000000E+00                                  
    1PGK                2.768264E+07                                  
    1PHID                         -1                                  
    1PSUBC                         0                                  
    1PMODE                         1                                  
  100CL  101 837.3825237         321                     2    1MODAL      1
 -4  ERROR       1    1
 -5  STR(%)      1    1    0    0
 -1         1 2.07210E+01
 -1         2 2.07210E+01
 -1         3 2.07210E+01
 -1         4 2.07210E+01
 -1         5 2.07210E+01
 -1         6 2.07210E+01
 -1         7 2.07210E+01
 -1         8 2.07210E+01
 -1         9 2.07210E+01
 -1        10 2.07210E+01
 -1        11 2.07210E+01
 -1        12 2.07210E+01
 -1        13 2.07210E+01
 -1        14 2.07210E+01
 -1        15 2.07210E+01
 -1        16 2.07210E+01
 -1        17 2.07210E+01
 -1        18 2.07210E+01
 -1        19 2.07210E+01
 -1        20 2.07210E+01
 -1        21 1.88161E+01
 -1        22 1.88161E+01
 -1        23 1.88161E+01
 -1        24 1.88161E+01
 -1        25 1.97686E+01
 -1        26 1.88161E+01
 -1        27 1.97686E+01
 -1        28 1.88161E+01
 -1        29 1.88161E+01
 -1        30 1.97686E+01
 -1        31 1.88161E+01
 -1        32 1.97686E+01
 -1        33 1.88161E+01
 -1        34 1.88161E+01
 -1        35 1.88161E+01
 -1        36 1.88161E+01
 -1        37 1.88161E+01
 -1        38 1.88161E+01
 -1        39 1.88161E+01
 -1        40 1.88161E+01
 -1        41 1.88161E+01
 -1        42 1.88161E+01
 -1        43 1.88161E+01
 -1        44 1.88161E+01
 -1        45 1.84796E+01
 -1        46 1.84796E+01
 -1        47 1.84796E+01
 -1        48 1.84796E+01
 -1        49 1.86479E+01
 -1        50 1.84796E+01
 -1        51 1.86479E+01
 -1        52 1.84796E+01
 -1        53 1.84796E+01
 -1        54 1.86479E+01
 -1        55 1.84796E+01
 -1        56 1.86479E+01
 -1        57 1.82172E+01
 -1        58 1.82172E+01
 -1        59 1.82172E+01
 -1        60 1.82172E+01
 -1        61 1.83484E+01
 -1        62 1.82172E+01
 -1        63 1.83484E+01
 -1        64 1.82172E+01
 -1        65 1.82172E+01
 -1        66 1.83484E+01
 -1        67 1.82172E+01
 -1        68 1.83484E+01
 -1        69 1.78175E+01
 -1        70 1.78175E+01
 -1        71 1.78175E+01
 -1        72 1.78175E+01
 -1        73 1.80173E+01
 -1        74 1.78175E+01
 -1        75 1.80173E+01
 -1        76 1.78175E+01
 -1        77 1.78175E+01
 -1        78 1.80173E+01
 -1        79 1.78175E+01
 -1        80 1.80173E+01
 -1        81 1.72919E+01
 -1        82 1.72919E+01
 -1        83 1.72919E+01
 -1        84 1.72919E+01
 -1        85 1.75547E+01
 -1        86 1.72919E+01
 -1        87 1.75547E+01
 -1        88 1.72919E+01
 -1        89 1.72919E+01
 -1        90 1.75547E+01
 -1        91 1.72919E+01
 -1        92 1.75547E+01
 -1        93 1.66089E+01
 -1        94 1.64745E+01
 -1        95 1.66089E+01
 -1        96 1.66089E+01
 -1        97 1.69504E+01
 -1        98 1.65417E+01
 -1        99 1.68832E+01
 -1       100 1.66089E+01
 -1       101 1.65417E+01
 -1       102 1.69504E+01
 -1       103 1.66089E+01
 -1       104 1.69504E+01
 -1       105 2.29820E+01
 -1       106 2.29820E+01
 -1       107 2.29820E+01
 -1       108 2.29820E+01
 -1       109 1.97954E+01
 -1       110 2.29820E+01
 -1       111 1.97282E+01
 -1       112 2.29820E+01
 -1       113 2.29820E+01
 -1       114 1.97954E+01
 -1       115 2.29820E+01
 -1       116 1.97954E+01
 -1       117 2.29820E+01
 -1       118 2.29820E+01
 -1       119 2.29820E+01
 -1       120 2.29820E+01
 -1       121 2.29820E+01
 -1       122 2.29820E+01
 -1       123 2.29820E+01
 -1       124 2.29820E+01
 -1       125 2.29820E+01
 -1       126 2.29820E+01
 -1       127 2.29820E+01
 -1       128 2.29820E+01
 -1       129 1.97135E+01
 -1       130 2.07210E+01
 -1       131 2.07210E+01
 -1       132 1.97135E+01
 -1       133 2.02173E+01
 -1       134 2.07210E+01
 -1       135 2.07210E+01
 -1       136 2.02173E+01
 -1       137 2.02173E+01
 -1       138 2.07210E+01
 -1       139 2.02173E+01
 -1       140 1.97135E+01
 -1       141 1.88161E+01
 -1       142 1.83454E+01
 -1       143 1.88161E+01
 -1       144 1.85808E+01
 -1       145 1.97686E+01
 -1       146 1.85808E+01
 -1       147 1.90295E+01
 -1       148 1.88161E+01
 -1       149 1.83113E+01
 -1       150 1.88161E+01
 -1       151 1.85637E+01
 -1       152 1.88161E+01
 -1       153 1.85637E+01
 -1       154 1.83284E+01
 -1       155 1.84796E+01
 -1       156 1.81001E+01
 -1       157 1.84796E+01
 -1       158 1.82898E+01
 -1       159 1.86479E+01
 -1       160 1.82898E+01
 -1       161 1.82057E+01
 -1       162 1.82172E+01
 -1       163 1.79456E+01
 -1       164 1.82172E+01
 -1       165 1.80814E+01
 -1       166 1.83484E+01
 -1       167 1.80814E+01
 -1       168 1.80229E+01
 -1       169 1.78175E+01
 -1       170 1.76763E+01
 -1       171 1.78175E+01
 -1       172 1.77469E+01
 -1       173 1.80173E+01
 -1       174 1.77469E+01
 -1       175 1.78110E+01
 -1       176 1.72919E+01
 -1       177 1.72633E+01
 -1       178 1.72919E+01
 -1       179 1.72776E+01
 -1       180 1.75547E+01
 -1       181 1.72776E+01
 -1       182 1.74698E+01
 -1       183 1.66089E+01
 -1       184 1.66089E+01
 -1       185 1.66089E+01
 -1       186 1.66089E+01
 -1       187 1.69504E+01
 -1       188 1.66089E+01
 -1       189 1.69361E+01
 -1       190 2.29820E+01
 -1       191 2.28252E+01
 -1       192 2.29820E+01
 -1       193 2.29036E+01
 -1       194 1.97954E+01
 -1       195 2.29036E+01
 -1       196 1.97171E+01
 -1       197 2.29820E+01
 -1       198 2.28252E+01
 -1       199 2.29820E+01
 -1       200 2.29036E+01
 -1       201 2.29820E+01
 -1       202 2.29036E+01
 -1       203 2.28252E+01
 -1       204 1.97135E+01
 -1       205 1.97135E+01
 -1       206 2.07210E+01
 -1       207 2.07210E+01
 -1       208 2.02173E+01
 -1       209 1.97135E+01
 -1       210 2.02173E+01
 -1       211 2.02173E+01
 -1       212 2.02173E+01
 -1       213 2.07210E+01
 -1       214 2.07210E+01
 -1       215 2.07210E+01
 -1       216 1.83454E+01
 -1       217 1.88161E+01
 -1       218 1.90295E+01
 -1       219 1.85808E+01
 -1       220 1.85808E+01
 -1       221 1.97686E+01
 -1       222 1.88161E+01
 -1       223 1.83113E+01
 -1       224 1.88161E+01
 -1       225 1.83284E+01
 -1       226 1.85637E+01
 -1       227 1.85637E+01
 -1       228 1.88161E+01
 -1       229 1.88161E+01
 -1       230 1.81001E+01
 -1       231 1.84796E+01
 -1       232 1.82057E+01
 -1       233 1.82898E+01
 -1       234 1.82898E+01
 -1       235 1.86479E+01
 -1       236 1.84796E+01
 -1       237 1.79456E+01
 -1       238 1.82172E+01
 -1       239 1.80229E+01
 -1       240 1.80814E+01
 -1       241 1.80814E+01
 -1       242 1.83484E+01
 -1       243 1.82172E+01
 -1       244 1.76763E+01
 -1       245 1.78175E+01
 -1       246 1.78110E+01
 -1       247 1.77469E+01
 -1       248 1.77469E+01
 -1       249 1.80173E+01
 -1       250 1.78175E+01
 -1       251 1.72633E+01
 -1       252 1.72919E+01
 -1       253 1.74698E+01
 -1       254 1.72776E+01
 -1       255 1.72776E+01
 -1       256 1.75547E+01
 -1       257 1.72919E+01
 -1       258 1.66089E+01
 -1       259 1.66089E+01
 -1       260 1.69361E+01
 -1       261 1.66089E+01
 -1       262 1.66089E+01
 -1       263 1.69504E+01
 -1       264 1.66089E+01
 -1       265 2.28252E+01
 -1       266 2.29820E+01
 -1       267 1.97171E+01
 -1       268 2.29036E+01
 -1       269 2.29036E+01
 -1       270 1.97954E+01
 -1       271 2.29820E+01
 -1       272 2.28252E+01
 -1       273 2.29820E+01
 -1       274 2.28252E+01
 -1       275 2.29036E+01
 -1       276 2.29036E+01
 -1       277 2.29820E+01
 -1       278 2.29820E+01
 -1       279 2.07210E+01
 -1       280 2.07210E+01
 -1       281 2.07210E+01
 -1       282 2.07210E+01
 -1       283 2.07210E+01
 -1       284 2.07210E+01
 -1       285 2.07210E+01
 -1       286 1.88161E+01
 -1       287 1.88161E+01
 -1       288 1.97686E+01
 -1       289 1.88161E+01
 -1       290 1.88161E+01
 -1       291 1.88161E+01
 -1       292 1.88161E+01
 -1       293 1.88161E+01
 -1       294 1.84796E+01
 -1       295 1.84796E+01
 -1       296 1.86479E+01
 -1       297 1.84796E+01
 -1       298 1.82172E+01
 -1       299 1.82172E+01
 -1       300 1.83484E+01
 -1       301 1.82172E+01
 -1       302 1.78175E+01
 -1       303 1.78175E+01
 -1       304 1.80173E+01
 -1       305 1.78175E+01
 -1       306 1.72919E+01
 -1       307 1.72919E+01
 -1       308 1.75547E+01
 -1       309 1.72919E+01
 -1       310 1.64745E+01
 -1       311 1.65417E+01
 -1       312 1.68832E+01
 -1       313 1.65417E+01
 -1       314 2.29820E+01
 -1       315 2.29820E+01
 -1       316 1.97282E+01
 -1       317 2.29820E+01
 -1       318 2.29820E+01
 -1       319 2.29820E+01
 -1       320 2.29820E+01
 -1       321 2.29820E+01
 -3
    1PSTEP                         5           1           1          
    1PGM                1.000000E+00                                  
    1PGK                2.768264E+07                                  
    1PHID                         -1                                  
    1PSUBC                         0                                  
    1PMODE                         2                                  
  100CL  102 837.3825237         321                     2    2MODAL      1
 -4  DISP        4    1
 -5  D1          1    2    1    0
 -5  D2          1    2    2    0
 -5  D3          1    2    3    0
 -5  ALL         1    2    0    0    1ALL
 -1         1 0.00000E+00 0.00000E+00 0.00000E+00
 -1         2 0.00000E+00 0.00000E+00 0.00000E+00
 -1         3-1.24797E-01-3.66038E-03 1.12368E-01
 -1         4-1.17189E-01-1.94520E-02 1.15080E-01
 -1         5 0.00000E+00 0.00000E+00 0.00000E+00
 -1         6 0.00000E+00 0.00000E+00 0.00000E+00
 -1         7-1.17347E-01-3.91501E-03 8.80589E-16
 -1         8-1.09715E-01-4.16355E-03 3.74889E-03
 -1         9 0.00000E+00 0.00000E+00 0.00000E+00
 -1        10-3.91689E-02-7.37378E-04 5.33911E-02
 -1        11-1.23524E-01-1.13788E-02 1.13599E-01
 -1        12-3.21158E-02-1.78517E-02 5.69097E-02
 -1        13 0.00000E+00 0.00000E+00 0.00000E+00
 -1        14 0.00000E+00 0.00000E+00 0.00000E+00
 -1        15-1.18325E-01-3.87263E-03 5.53757E-02
 -1        16-1.10795E-01-1.19272E-02 5.87556E-02
 -1        17 0.00000E+00 0.00000E+00 0.00000E+00
 -1        18-2.96454E-02-9.89048E-04 3.64292E-16
 -1        19-1.16077E-01-3.94763E-03 1.84748E-03
 -1        20-2.21020E-02-1.30677E-03 1.78127E-03
 -1        21-4.57800E-01-1.48205E-02 2.12062E-01
 -1        22-4.51346E-01-2.88010E-02 2.18885E-01
 -1        23-4.51033E-01-1.50476E-02 1.52330E-15
 -1        24-4.44224E-01-1.52734E-02 7.07494E-03
 -1        25-2.66577E-01-8.38799E-03 1.64070E-01
 -1        26-4.56162E-01-2.17728E-02 2.15629E-01
 -1        27-2.59608E-01-2.35912E-02 1.69213E-01
 -1        28-4.52890E-01-1.49867E-02 1.05475E-01
 -1        29-4.46232E-01-2.20852E-02 1.12257E-01
 -1        30-2.58905E-01-8.63774E-03 1.35829E-15
 -1        31-4.49207E-01-1.51096E-02 3.51892E-03
 -1        32-2.51419E-01-8.89370E-03 5.47379E-03
 -1        33-9.73528E-01-3.21059E-02 2.94979E-01
 -1        34-9.68300E-01-4.34728E-02 3.04522E-01
 -1        35-9.67923E-01-3.22924E-02 1.85268E-15
 -1        36-9.62332E-01-3.24794E-02 9.84125E-03
 -1        37-6.94985E-01-2.27709E-02 2.55469E-01
 -1        38-9.72343E-01-3.77376E-02 2.99866E-01
 -1        39-6.89189E-01-3.54380E-02 2.63699E-01
 -1        40-9.69278E-01-3.22470E-02 1.46957E-01
 -1        41-9.63876E-01-3.80274E-02 1.56546E-01
 -1        42-6.88768E-01-2.29791E-02 1.47489E-15
 -1        43-9.66562E-01-3.23376E-02 4.90286E-03
 -1        44-6.82528E-01-2.31865E-02 8.52310E-03
 -1        45-1.63820E+00-5.43631E-02 3.61373E-01
 -1        46-1.63412E+00-6.32491E-02 3.73155E-01
 -1        47-1.63384E+00-5.45090E-02 3.35149E-15
 -1        48-1.62946E+00-5.46547E-02 1.20563E-02
 -1        49-1.28930E+00-4.26821E-02 3.30120E-01
 -1        50-1.63725E+00-5.87712E-02 3.67378E-01
 -1        51-1.28466E+00-5.28004E-02 3.40848E-01
 -1        52-1.63494E+00-5.44722E-02 1.80166E-01
 -1        53-1.63071E+00-5.89883E-02 1.91976E-01
 -1        54-1.28432E+00-4.28482E-02 2.61249E-15
 -1        55-1.63273E+00-5.45459E-02 6.01081E-03
 -1        56-1.27934E+00-4.30145E-02 1.10137E-02
 -1        57-2.41921E+00-8.04961E-02 4.11823E-01
 -1        58-2.41621E+00-8.70380E-02 4.25308E-01
 -1        59-2.41599E+00-8.06037E-02 5.50948E-15
 -1        60-2.41276E+00-8.07112E-02 1.37395E-02
 -1        61-2.01616E+00-6.70112E-02 3.88409E-01
 -1        62-2.41851E+00-8.37403E-02 4.18671E-01
 -1        63-2.01262E+00-7.47085E-02 4.01100E-01
 -1        64-2.41680E+00-8.05768E-02 2.05438E-01
 -1        65-2.41368E+00-8.39041E-02 2.18951E-01
 -1        66-2.01236E+00-6.71377E-02 3.55271E-15
 -1        67-2.41518E+00-8.06306E-02 6.85395E-03
 -1        68-2.00857E+00-6.72642E-02 1.29583E-02
 -1        69-3.28573E+00-1.09474E-01 4.47650E-01
 -1        70-3.28369E+00-1.13906E-01 4.62361E-01
 -1        71-3.28354E+00-1.09548E-01 7.60503E-15
 -1        72-3.28135E+00-1.09620E-01 1.49348E-02
 -1        73-2.84360E+00-9.46899E-02 4.31374E-01
 -1        74-3.28525E+00-1.11673E-01 4.55098E-01
 -1        75-2.84109E+00-1.00154E-01 4.45525E-01
 -1        76-3.28410E+00-1.09529E-01 2.23407E-01
 -1        77-3.28198E+00-1.11784E-01 2.38142E-01
 -1        78-2.84090E+00-9.47798E-02 6.75848E-15
 -1        79-3.28299E+00-1.09566E-01 7.45342E-03
 -1        80-2.83821E+00-9.48698E-02 1.43918E-02
 -1        81-4.20997E+00-1.40369E-01 4.70594E-01
 -1        82-4.20876E+00-1.42999E-01 4.86111E-01
 -1        83-4.20867E+00-1.40412E-01 9.76996E-15
 -1        84-4.20737E+00-1.40456E-01 1.57002E-02
 -1        85-3.74223E+00-1.24735E-01 4.60518E-01
 -1        86-4.20969E+00-1.41674E-01 4.78429E-01
 -1        87-3.74062E+00-1.28235E-01 4.75676E-01
 -1        88-4.20901E+00-1.40401E-01 2.34955E-01
 -1        89-4.20775E+00-1.41742E-01 2.50492E-01
 -1        90-3.74049E+00-1.24792E-01 8.52096E-15
 -1        91-4.20834E+00-1.40423E-01 7.83870E-03
 -1        92-3.73876E+00-1.24850E-01 1.53641E-02
 -1        93-5.16822E+00-1.72384E-01 4.82985E-01
 -1        94-5.16765E+00-1.73612E-01 4.98967E-01
 -1        95-5.16761E+00-1.72405E-01 1.10467E-14
 -1        96-5.16699E+00-1.72425E-01 1.61136E-02
 -1        97-4.68614E+00-1.56279E-01 4.77877E-01
 -1        98-5.16808E+00-1.72994E-01 4.91032E-01
 -1        99-4.68527E+00-1.58170E-01 4.93660E-01
 -1       100-5.16777E+00-1.72399E-01 2.41244E-01
 -1       101-5.16718E+00-1.73028E-01 2.57239E-01
 -1       102-4.68519E+00-1.56310E-01 9.43690E-15
 -1       103-5.16745E+00-1.72410E-01 8.04852E-03
 -1       104-4.68425E+00-1.56342E-01 1.59432E-02
 -1       105-6.14196E+00-2.04900E-01 4.87730E-01
 -1       106-6.14182E+00-2.05215E-01 5.03930E-01
 -1       107-6.14180E+00-2.04906E-01 1.24345E-14
 -1       108-6.14162E+00-2.04912E-01 1.62719E-02
 -1       109-5.65408E+00-1.88610E-01 4.86065E-01
 -1       110-6.14192E+00-2.05058E-01 4.95858E-01
 -1       111-5.65375E+00-1.89335E-01 5.02177E-01
 -1       112-6.14185E+00-2.04905E-01 2.43732E-01
 -1       113-6.14169E+00-2.05071E-01 2.59941E-01
 -1       114-5.65370E+00-1.88622E-01 1.20459E-14
 -1       115-6.14175E+00-2.04908E-01 8.13154E-03
 -1       116-5.65333E+00-1.88635E-01 1.62164E-02
 -1       117-7.11914E+00-2.37512E-01 4.88367E-01
 -1       118-7.11913E+00-2.37487E-01 5.04621E-01
 -1       119-7.11912E+00-2.37512E-01 1.14353E-14
 -1       120-7.11911E+00-2.37513E-01 1.62932E-02
 -1       121-6.63059E+00-2.21209E-01 4.88297E-01
 -1       122-7.11913E+00-2.37502E-01 4.96501E-01
 -1       123-6.63054E+00-2.21310E-01 5.04546E-01
 -1       124-7.11914E+00-2.37512E-01 2.44174E-01
 -1       125-7.11913E+00-2.37503E-01 2.60443E-01
 -1       126-6.63052E+00-2.21211E-01 1.18239E-14
 -1       127-7.11911E+00-2.37513E-01 8.14628E-03
 -1       128-6.63046E+00-2.21214E-01 1.62908E-02
 -1       129 0.00000E+00 0.00000E+00 0.00000E+00
 -1       130 0.00000E+00 0.00000E+00 0.00000E+00
 -1       131-1.24797E-01-3.66038E-03-1.12368E-01
 -1       132-1.16151E-01 1.16672E-02-1.07650E-01
 -1       133 0.00000E+00 0.00000E+00 0.00000E+00
 -1       134 0.00000E+00 0.00000E+00 0.00000E+00
 -1       135-1.18325E-01-3.87263E-03-5.53757E-02
 -1       136-1.10282E-01 3.70244E-03-5.12982E-02
 -1       137 0.00000E+00 0.00000E+00 0.00000E+00
 -1       138-3.91689E-02-7.37378E-04-5.33911E-02
 -1       139-1.23002E-01 4.00312E-03-1.09928E-01
 -1       140-3.09949E-02 1.57461E-02-5.32350E-02
 -1       141-4.57800E-01-1.48205E-02-2.12062E-01
 -1       142-4.50428E-01-1.28444E-03-2.04751E-01
 -1       143-4.52890E-01-1.49867E-02-1.05475E-01
 -1       144-4.45772E-01-8.33699E-03-9.81031E-02
 -1       145-2.66577E-01-8.38799E-03-1.64070E-01
 -1       146-4.55703E-01-7.98673E-03-2.08611E-01
 -1       147-2.58610E-01 6.30214E-03-1.58287E-01
 -1       148-9.73528E-01-3.21059E-02-2.94979E-01
 -1       149-9.67554E-01-2.11123E-02-2.84859E-01
 -1       150-9.69278E-01-3.22470E-02-1.46957E-01
 -1       151-9.63503E-01-2.68400E-02-1.36864E-01
 -1       152-6.94985E-01-2.27709E-02-2.55469E-01
 -1       153-9.71970E-01-2.65647E-02-2.90077E-01
 -1       154-6.88358E-01-1.05205E-02-2.46672E-01
 -1       155-1.63820E+00-5.43631E-02-3.61373E-01
 -1       156-1.63354E+00-4.57687E-02-3.49060E-01
 -1       157-1.63494E+00-5.44722E-02-1.80166E-01
 -1       158-1.63042E+00-5.02476E-02-1.67863E-01
 -1       159-1.28930E+00-4.26821E-02-3.30120E-01
 -1       160-1.63696E+00-5.00287E-02-3.55373E-01
 -1       161-1.28400E+00-3.28966E-02-3.18839E-01
 -1       162-2.41921E+00-8.04961E-02-4.11823E-01
 -1       163-2.41578E+00-7.41696E-02-3.97845E-01
 -1       164-2.41680E+00-8.05768E-02-2.05438E-01
 -1       165-2.41347E+00-7.74645E-02-1.91472E-01
 -1       166-2.01616E+00-6.70112E-02-3.88409E-01
 -1       167-2.41830E+00-7.73058E-02-4.04978E-01
 -1       168-2.01212E+00-5.95674E-02-3.75200E-01
 -1       169-3.28573E+00-1.09474E-01-4.47650E-01
 -1       170-3.28340E+00-1.05189E-01-4.32506E-01
 -1       171-3.28410E+00-1.09529E-01-2.23407E-01
 -1       172-3.28184E+00-1.07420E-01-2.08272E-01
 -1       173-2.84360E+00-9.46899E-02-4.31374E-01
 -1       174-3.28511E+00-1.07313E-01-4.40204E-01
 -1       175-2.84073E+00-8.94068E-02-4.16757E-01
 -1       176-4.20997E+00-1.40369E-01-4.70594E-01
 -1       177-4.20859E+00-1.37826E-01-4.54722E-01
 -1       178-4.20901E+00-1.40401E-01-2.34955E-01
 -1       179-4.20766E+00-1.39147E-01-2.19091E-01
 -1       180-3.74223E+00-1.24735E-01-4.60518E-01
 -1       181-4.20960E+00-1.39086E-01-4.62762E-01
 -1       182-3.74039E+00-1.21351E-01-4.44961E-01
 -1       183-5.16822E+00-1.72384E-01-4.82985E-01
 -1       184-5.16757E+00-1.71198E-01-4.66748E-01
 -1       185-5.16777E+00-1.72399E-01-2.41244E-01
 -1       186-5.16714E+00-1.71812E-01-2.25012E-01
 -1       187-4.68614E+00-1.56279E-01-4.77877E-01
 -1       188-5.16804E+00-1.71785E-01-4.74943E-01
 -1       189-4.68515E+00-1.54452E-01-4.61784E-01
 -1       190-6.14196E+00-2.04900E-01-4.87730E-01
 -1       191-6.14180E+00-2.04598E-01-4.71390E-01
 -1       192-6.14185E+00-2.04905E-01-2.43732E-01
 -1       193-6.14168E+00-2.04750E-01-2.27397E-01
 -1       194-5.65408E+00-1.88610E-01-4.86065E-01
 -1       195-6.14191E+00-2.04747E-01-4.79599E-01
 -1       196-5.65370E+00-1.87911E-01-4.69751E-01
 -1       197-7.11914E+00-2.37512E-01-4.88367E-01
 -1       198-7.11913E+00-2.37538E-01-4.72038E-01
 -1       199-7.11914E+00-2.37512E-01-2.44174E-01
 -1       200-7.11913E+00-2.37522E-01-2.27857E-01
 -1       201-6.63059E+00-2.21209E-01-4.88297E-01
 -1       202-7.11913E+00-2.37523E-01-4.80210E-01
 -1       203-6.63054E+00-2.21114E-01-4.71967E-01
 -1       204 0.00000E+00 0.00000E+00 0.00000E+00
 -1       205-1.16151E-01 1.16672E-02 1.07650E-01
 -1       206 0.00000E+00 0.00000E+00 0.00000E+00
 -1       207-1.09715E-01-4.16355E-03-3.74889E-03
 -1       208 0.00000E+00 0.00000E+00 0.00000E+00
 -1       209-3.09949E-02 1.57461E-02 5.32350E-02
 -1       210-1.23002E-01 4.00312E-03 1.09928E-01
 -1       211 0.00000E+00 0.00000E+00 0.00000E+00
 -1       212-1.10282E-01 3.70244E-03 5.12982E-02
 -1       213 0.00000E+00 0.00000E+00 0.00000E+00
 -1       214-2.21020E-02-1.30677E-03-1.78127E-03
 -1       215-1.16077E-01-3.94763E-03-1.84748E-03
 -1       216-4.50428E-01-1.28444E-03 2.04751E-01
 -1       217-4.44224E-01-1.52734E-02-7.07494E-03
 -1       218-2.58610E-01 6.30214E-03 1.58287E-01
 -1       219-4.55703E-01-7.98673E-03 2.08611E-01
 -1       220-4.45772E-01-8.33699E-03 9.81031E-02
 -1       221-2.51419E-01-8.89370E-03-5.47379E-03
 -1       222-4.49207E-01-1.51096E-02-3.51892E-03
 -1       223-9.67554E-01-2.11123E-02 2.84859E-01
 -1       224-9.62332E-01-3.24794E-02-9.84125E-03
 -1       225-6.88358E-01-1.05205E-02 2.46672E-01
 -1       226-9.71970E-01-2.65647E-02 2.90077E-01
 -1       227-9.63503E-01-2.68400E-02 1.36864E-01
 -1       228-6.82528E-01-2.31865E-02-8.52310E-03
 -1       229-9.66562E-01-3.23376E-02-4.90286E-03
 -1       230-1.63354E+00-4.57687E-02 3.49060E-01
 -1       231-1.62946E+00-5.46547E-02-1.20563E-02
 -1       232-1.28400E+00-3.28966E-02 3.18839E-01
 -1       233-1.63696E+00-5.00287E-02 3.55373E-01
 -1       234-1.63042E+00-5.02476E-02 1.67863E-01
 -1       235-1.27934E+00-4.30145E-02-1.10137E-02
 -1       236-1.63273E+00-5.45459E-02-6.01081E-03
 -1       237-2.41578E+00-7.41696E-02 3.97845E-01
 -1       238-2.41276E+00-8.07112E-02-1.37395E-02
 -1       239-2.01212E+00-5.95674E-02 3.75200E-01
 -1       240-2.41830E+00-7.73058E-02 4.04978E-01
 -1       241-2.41347E+00-7.74645E-02 1.91472E-01
 -1       242-2.00857E+00-6.72642E-02-1.29583E-02
 -1       243-2.41518E+00-8.06306E-02-6.85395E-03
 -1       244-3.28340E+00-1.05189E-01 4.32506E-01
 -1       245-3.28135E+00-1.09620E-01-1.49348E-02
 -1       246-2.84073E+00-8.94068E-02 4.16757E-01
 -1       247-3.28511E+00-1.07313E-01 4.40204E-01
 -1       248-3.28184E+00-1.07420E-01 2.08272E-01
 -1       249-2.83821E+00-9.48698E-02-1.43918E-02
 -1       250-3.28299E+00-1.09566E-01-7.45342E-03
 -1       251-4.20859E+00-1.37826E-01 4.54722E-01
 -1       252-4.20737E+00-1.40456E-01-1.57002E-02
 -1       253-3.74039E+00-1.21351E-01 4.44961E-01
 -1       254-4.20960E+00-1.39086E-01 4.62762E-01
 -1       255-4.20766E+00-1.39147E-01 2.19091E-01
 -1       256-3.73876E+00-1.24850E-01-1.53641E-02
 -1       257-4.20834E+00-1.40423E-01-7.83870E-03
 -1       258-5.16757E+00-1.71198E-01 4.66748E-01
 -1       259-5.16699E+00-1.72425E-01-1.61136E-02
 -1       260-4.68515E+00-1.54452E-01 4.61784E-01
 -1       261-5.16804E+00-1.71785E-01 4.74943E-01
 -1       262-5.16714E+00-1.71812E-01 2.25012E-01
 -1       263-4.68425E+00-1.56342E-01-1.59432E-02
 -1       264-5.16745E+00-1.72410E-01-8.04852E-03
 -1       265-6.14180E+00-2.04598E-01 4.71390E-01
 -1       266-6.14162E+00-2.04912E-01-1.62719E-02
 -1       267-5.65370E+00-1.87911E-01 4.69751E-01
 -1       268-6.14191E+00-2.04747E-01 4.79599E-01
 -1       269-6.14168E+00-2.04750E-01 2.27397E-01
 -1       270-5.65333E+00-1.88635E-01-1.62164E-02
 -1       271-6.14175E+00-2.04908E-01-8.13154E-03
 -1       272-7.11913E+00-2.37538E-01 4.72038E-01
 -1       273-7.11911E+00-2.37513E-01-1.62932E-02
 -1       274-6.63054E+00-2.21114E-01 4.71967E-01
 -1       275-7.11913E+00-2.37523E-01 4.80210E-01
 -1       276-7.11913E+00-2.37522E-01 2.27857E-01
 -1       277-6.63046E+00-2.21214E-01-1.62908E-02
 -1       278-7.11911E+00-2.37513E-01-8.14628E-03
 -1       279 0.00000E+00 0.00000E+00 0.00000E+00
 -1       280-1.17189E-01-1.94520E-02-1.15080E-01
 -1       281 0.00000E+00 0.00000E+00 0.00000E+00
 -1       282-1.10795E-01-1.19272E-02-5.87556E-02
 -1       283 0.00000E+00 0.00000E+00 0.00000E+00
 -1       284-3.21158E-02-1.78517E-02-5.69097E-02
 -1       285-1.23524E-01-1.13788E-02-1.13599E-01
 -1       286-4.51346E-01-2.88010E-02-2.18885E-01
 -1       287-4.46232E-01-2.20852E-02-1.12257E-01
 -1       288-2.59608E-01-2.35912E-02-1.69213E-01
 -1       289-4.56162E-01-2.17728E-02-2.15629E-01
 -1       290-9.68300E-01-4.34728E-02-3.04522E-01
 -1       291-9.63876E-01-3.80274E-02-1.56546E-01
 -1       292-6.89189E-01-3.54380E-02-2.63699E-01
 -1       293-9.72343E-01-3.77376E-02-2.99866E-01
 -1       294-1.63412E+00-6.32491E-02-3.73155E-01
 -1       295-1.63071E+00-5.89883E-02-1.91976E-01
 -1       296-1.28466E+00-5.28004E-02-3.40848E-01
 -1       297-1.63725E+00-5.87712E-02-3.67378E-01
 -1       298-2.41621E+00-8.70380E-02-4.25308E-01
 -1       299-2.41368E+00-8.39041E-02-2.18951E-01
 -1       300-2.01262E+00-7.47085E-02-4.01100E-01
 -1       301-2.41851E+00-8.37403E-02-4.18671E-01
 -1       302-3.28369E+00-1.13906E-01-4.62361E-01
 -1       303-3.28198E+00-1.11784E-01-2.38142E-01
 -1       304-2.84109E+00-1.00154E-01-4.45525E-01
 -1       305-3.28525E+00-1.11673E-01-4.55098E-01
 -1       306-4.20876E+00-1.42999E-01-4.86111E-01
 -1       307-4.20775E+00-1.41742E-01-2.50492E-01
 -1       308-3.74062E+00-1.28235E-01-4.75676E-01
 -1       309-4.20969E+00-1.41674E-01-4.78429E-01
 -1       310-5.16765E+00-1.73612E-01-4.98967E-01
 -1       311-5.16718E+00-1.73028E-01-2.57239E-01
 -1       312-4.68527E+00-1.58170E-01-4.93660E-01
 -1       313-5.16808E+00-1.72994E-01-4.91032E-01
 -1       314-6.14182E+00-2.05215E-01-5.03930E-01
 -1       315-6.14169E+00-2.05071E-01-2.59941E-01
 -1       316-5.65375E+00-1.89335E-01-5.02177E-01
 -1       317-6.14192E+00-2.05058E-01-4.95858E-01
 -1       318-7.11913E+00-2.37487E-01-5.04621E-01
 -1       319-7.11913E+00-2.37503E-01-2.60443E-01
 -1       320-6.63054E+00-2.21310E-01-5.04546E-01
 -1       321-7.11913E+00-2.37502E-01-4.96501E-01
 -3
    1PSTEP                         6           1           1          
    1PGM                1.000000E+00                                  
    1PGK                2.768264E+07                                  
    1PHID                         -1                                  
    1PSUBC                         0                                  
    1PMODE                         2                                  
  100CL  102 837.3825237         321                     2    2MODAL      1
 -4  STRESS      6    1
 -5  SXX         1    4    1    1
 -5  SYY         1    4    2    2
 -5  SZZ         1    4    3    3
 -5  SXY         1    4    1    2
 -5  SYZ         1    4    2    3
 -5  SZX         1    4    3    1
 -1         1 1.36369E+12 1.36369E+12 3.18190E+12-5.78377E+03-4.19634E+11-9.10588E+10
 -1         2 1.22603E+12 1.22603E+12 2.86070E+12 6.06413E+02 5.74175E+09-2.57479E+11
 -1         3-1.36244E+10 9.08356E+10 2.44498E+12 1.14034E+09-5.12991E+09 4.27031E+10
 -1         4-2.79857E+10 2.36991E+10 2.41711E+12 4.71643E+10 7.54785E+10-1.11039E+10
 -1         5 4.09036E+10 4.09037E+10 9.54405E+10 1.81764E+04-8.59016E+09 1.72102E+11
 -1         6 9.43983E-03 7.85547E-03 1.69468E-02 1.72257E-04-3.32566E+08-9.96823E+09
 -1         7 3.92609E-02 2.27757E-02 4.46510E-02 8.82912E-03-3.97007E+09-1.18998E+11
 -1         8 3.03051E+09-4.54544E+08 8.15707E+10 3.41802E+10 1.42469E+09-1.53762E+11
 -1         9 1.29336E+12 1.29336E+12 3.01789E+12-4.18117E+05-2.05515E+11-1.94714E+11
 -1        10 1.09585E+11 5.77678E+10 2.41000E+12-2.28170E+09-5.91016E+08-1.19391E+11
 -1        11-1.75196E+10 6.20346E+10 2.43519E+12 9.45785E+09 2.38984E+10 7.79606E+09
 -1        12 1.04373E+11 3.51814E+10 2.45862E+12-6.77136E+10-9.62421E+10-3.46997E+10
 -1        13 6.94319E+11 6.94320E+11 1.62013E+12-7.00974E+05-2.15078E+11 6.19747E+10
 -1        14 6.03230E+11 6.03231E+11 1.40758E+12-1.22544E+04 2.01839E+09-1.11542E+11
 -1        15 8.89903E+10 8.29394E+10 1.25672E+12-6.94672E+07-4.81836E+09-3.19856E+10
 -1        16 8.57901E+10 4.96469E+10 1.28272E+12 3.86790E+10 4.06685E+10-7.65475E+10
 -1        17 2.01253E+10 2.01253E+10 4.69606E+10-3.67309E+05-3.72133E+09 6.04985E+10
 -1        18 6.15692E-03 2.23923E-03 2.04735E-02 5.77927E-03-3.71831E+09-1.11452E+11
 -1        19 2.76707E+09 2.96895E+09 4.19275E+10-2.08219E+09-1.06712E+09-1.44424E+11
 -1        20 1.92728E+09 3.65605E+09 8.04038E+10-6.83911E+10-3.98320E+09-1.77149E+10
 -1        21 4.58275E+10 1.54887E+10 1.93971E+12-3.30941E+08-4.87881E+09-3.13279E+10
 -1        22 4.55452E+10 1.97668E+10 1.99884E+12-8.49256E+09 5.82650E+09-3.39449E+10
 -1        23 6.87675E-02 1.77855E-02 2.03576E-02 5.53870E-03-3.97738E+09-1.19217E+11
 -1        24 5.16743E+08 1.52892E+09 6.47136E+10-9.91952E+09-1.04518E+09-1.46236E+11
 -1        25-6.77579E+10-2.17787E+10 2.06677E+12 3.92530E+08-3.38140E+09 4.79373E+09
 -1        26 4.63743E+10 1.84097E+10 1.97233E+12-1.26526E+08 3.79656E+09-2.53874E+10
 -1        27-6.01983E+10-2.87160E+10 2.15328E+12 1.36629E+10 6.58947E+09-9.28934E+09
 -1        28 6.10473E+09 1.72881E+09 9.65967E+11-3.94946E+07-4.18182E+09-8.05257E+10
 -1        29 1.06070E+10 5.62052E+09 1.02685E+12-8.63526E+09-3.52018E+07-9.48802E+10
 -1        30 2.27013E-02 1.64223E-02 2.40250E-02 3.80611E-03-2.96526E+09-8.88798E+10
 -1        31 5.76777E+07 2.03670E+08 3.22272E+10-1.18380E+09-2.68655E+09-1.25344E+11
 -1        32-7.26595E+08-2.26058E+09 6.89527E+10 1.17656E+10 1.59931E+08-1.01353E+11
 -1        33-1.04144E+10-3.01664E+09 1.56353E+12 7.27594E+07-4.51337E+09-3.40773E+10
 -1        34-8.76379E+09-3.72316E+09 1.61663E+12 2.53219E+09 5.34006E+09-4.11981E+10
 -1        35 3.72648E-03-2.96098E-02 1.94435E-02-4.62589E-02-3.77402E+09-1.13121E+11
 -1        36-1.00643E+08-3.47451E+08 5.21635E+10 2.18087E+09-1.13691E+09-1.35282E+11
 -1        37 1.43139E+10 4.20702E+09 1.74686E+12-1.02277E+08-3.56148E+09-3.53180E+09
 -1        38-9.46240E+09-3.32836E+09 1.58977E+12 4.28821E+08 2.49509E+09-3.34456E+10
 -1        39 1.11107E+10 4.72257E+09 1.80317E+12-3.57283E+09 5.70105E+09-9.41897E+09
 -1        40 1.56206E+08 7.48610E+08 7.84481E+11-1.34142E+06-4.00323E+09-7.54217E+10
 -1        41 7.69632E+08 3.61299E+08 8.37715E+11 2.21275E+09 4.76925E+08-9.00879E+10
 -1        42-1.92366E-02-4.62325E-02-1.39065E-02-1.71549E-02-2.77732E+09-8.32465E+10
 -1        43 2.49756E+07 5.21144E+06 2.61723E+10-4.02072E+07-2.51626E+09-1.19992E+11
 -1        44 1.40357E+08 4.77549E+08 5.82796E+10-3.06561E+09-1.17830E+08-1.06751E+11
 -1        45 2.17870E+09-5.50850E+07 1.22189E+12-2.06509E+07-4.34048E+09-3.19402E+10
 -1        46 1.90272E+09 4.18301E+08 1.26302E+12-6.07902E+08 4.97163E+09-3.83207E+10
 -1        47-2.55499E-01-8.88182E-02-1.03760E-01-5.60506E-02-3.62986E+09-1.08800E+11
 -1        48-1.83778E+06 7.26871E+07 4.07653E+10-6.18984E+08-1.06561E+09-1.30100E+11
 -1        49-3.93720E+09-1.12658E+09 1.39279E+12 2.89471E+07-3.38013E+09-1.81943E+09
 -1        50 1.93334E+09 6.25057E+07 1.24234E+12-1.49104E+07 2.45024E+09-3.04827E+10
 -1        51-3.52612E+09-1.34452E+09 1.43987E+12 9.54201E+08 6.13047E+09-8.84763E+09
 -1        52-2.02644E+08-3.89537E+08 6.11110E+11 7.13040E+05-3.82765E+09-7.29708E+10
 -1        53-9.05033E+07 6.34656E+06 6.52222E+11-5.62647E+08 2.74910E+08-8.67072E+10
 -1        54-7.53443E-02-8.42931E-02-1.63846E-02-5.25889E-02-2.66357E+09-7.98370E+10
 -1        55-1.29960E+07-6.76072E+06 2.03882E+10 2.13724E+07-2.43449E+09-1.14729E+11
 -1        56-3.75856E+07-1.31355E+08 4.64672E+10 8.67651E+08-6.07010E+07-1.01315E+11
 -1        57-1.68262E+09-1.46651E+09 8.97661E+11 3.15802E+06-3.98245E+09-2.97815E+10
 -1        58-1.80939E+09-1.31211E+09 9.28224E+11 1.89011E+08 4.53907E+09-3.58186E+10
 -1        59 1.30685E-01 3.12139E-01 2.21498E-01-3.26036E-03-3.33056E+09-9.98292E+10
 -1        60-4.89264E+07-5.61366E+07 2.99483E+10 9.46577E+07-9.93588E+08-1.19369E+11
 -1        61 5.15084E+08-3.89745E+07 1.05963E+12-4.86423E+06-3.19111E+09-1.75030E+09
 -1        62-1.74835E+09-1.47200E+09 9.12731E+11 1.19044E+08 2.24784E+09-2.86557E+10
 -1        63 2.17954E+08 2.13215E+08 1.09537E+12-1.15511E+08 5.75637E+09-8.03067E+09
 -1        64-3.76023E+08-3.08145E+08 4.50197E+11 1.52350E+06-3.51676E+09-6.69797E+10
 -1        65-4.87557E+08-1.89159E+08 4.80699E+11 1.46970E+08 2.38574E+08-7.97052E+10
 -1        66-6.18882E-02 1.29522E-01 6.44450E-02-3.08159E-02-2.50864E+09-7.51933E+10
 -1        67-1.02805E+07-1.25451E+07 1.50197E+10 4.56649E+07-2.23462E+09-1.05410E+11
 -1        68-1.30029E+06 1.71845E+07 3.53520E+10-1.45799E+08-5.83945E+07-9.56494E+10
 -1        69-1.10052E+09-1.64720E+09 6.06096E+11-3.21178E+06-3.50736E+09-2.60794E+10
 -1        70-1.39244E+09-1.35828E+09 6.27081E+11-2.36563E+07 4.01720E+09-3.13749E+10
 -1        71-4.60853E-01-2.11506E-01-1.73498E-01 1.02138E-01-2.93364E+09-8.79322E+10
 -1        72-5.49547E+07-3.67161E+07 2.02209E+10-9.62688E+07-8.70075E+08-1.05128E+11
 -1        73-7.49135E+08-3.63315E+08 7.52046E+11 4.58746E+06-2.87046E+09-1.62397E+09
 -1        74-1.30660E+09-1.65211E+09 6.16244E+11 1.12940E+08 1.98137E+09-2.50518E+10
 -1        75-9.19145E+08-1.20858E+08 7.77824E+11 2.25678E+08 5.16516E+09-7.33061E+09
 -1        76-5.04430E+08-4.82187E+08 3.04561E+11 2.36829E+06-3.09635E+09-5.89740E+10
 -1        77-6.21686E+08-2.33779E+08 3.25505E+11-3.62993E+07 2.24139E+08-7.01556E+10
 -1        78-2.30924E-01 8.31380E-02-2.53820E-03 2.19955E-02-2.25651E+09-6.76359E+10
 -1        79-1.60870E+07-1.68291E+07 1.01610E+10 7.09864E+07-1.96753E+09-9.28091E+10
 -1        80-1.21211E+07-2.49931E+07 2.50902E+10 1.37503E+08-5.41799E+07-8.60383E+10
 -1        81-1.69232E+09-2.19446E+09 3.56887E+11-2.40789E+06-2.87378E+09-2.14138E+10
 -1        82-2.04977E+09-1.84461E+09 3.69787E+11 4.24406E+07 3.29671E+09-2.57609E+10
 -1        83 1.34190E-01-9.40995E-02 1.28903E-02-2.57372E-02-2.40341E+09-7.20390E+10
 -1        84-7.32127E+07-5.64601E+07 1.19067E+10-7.21733E+07-7.14421E+08-8.61377E+10
 -1        85-6.50889E+08-4.18823E+08 4.81520E+11 3.41997E+06-2.44686E+09-1.35385E+09
 -1        86-1.93052E+09-2.19758E+09 3.62895E+11 1.57280E+08 1.63208E+09-2.05800E+10
 -1        87-9.25824E+08-7.38852E+07 4.98466E+11 2.01796E+08 4.42646E+09-6.22073E+09
 -1        88-6.47826E+08-6.06735E+08 1.80445E+11 2.90772E+06-2.53714E+09-4.83261E+10
 -1        89-8.15738E+08-3.13190E+08 1.93275E+11 1.19108E+07 1.81215E+08-5.74982E+10
 -1        90-3.62341E-01-1.89379E-01-1.17516E-01 1.09504E-02-1.92335E+09-5.76498E+10
 -1        91-2.02422E+07-2.16132E+07 6.02010E+09 8.71551E+07-1.61229E+09-7.60474E+10
 -1        92-1.39730E+07-2.17154E+07 1.60647E+10 1.02509E+08-4.51678E+07-7.33415E+10
 -1        93-2.02845E+09-2.66684E+09 1.62585E+11-3.26299E+06-2.08436E+09-1.54792E+10
 -1        94-2.46206E+09-2.24171E+09 1.69211E+11 2.66431E+07 2.38146E+09-1.86227E+10
 -1        95-8.29368E-01-1.96008E-01-2.30245E-01 7.46757E-02-1.74247E+09-5.22281E+10
 -1        96-8.89726E+07-6.76743E+07 5.42426E+09-9.78040E+07-5.16425E+08-6.24758E+10
 -1        97-8.93931E+08-5.35546E+08 2.59797E+11 4.83146E+06-1.90202E+09-1.04815E+09
 -1        98-2.32751E+09-2.68519E+09 1.65314E+11 1.91583E+08 1.19987E+09-1.48617E+10
 -1        99-1.21173E+09-1.04844E+08 2.69583E+11 2.73901E+08 3.43776E+09-4.83336E+09
 -1       100-7.92447E+08-7.32054E+08 8.37478E+10 3.73644E+06-1.83961E+09-3.50174E+10
 -1       101-9.98972E+08-3.70422E+08 9.03088E+10-3.63647E+06 1.19571E+08-4.16727E+10
 -1       102-3.25885E-01-1.45475E-01-1.17283E-01-3.60137E-02-1.49456E+09-4.47974E+10
 -1       103-2.44232E+07-2.64381E+07 2.79404E+09 1.11995E+08-1.16827E+09-5.51398E+10
 -1       104-1.78672E+07-2.98238E+07 8.66749E+09 1.44817E+08-3.49690E+07-5.70106E+10
 -1       105-2.35407E+09-3.16842E+09 3.55531E+10-2.87137E+06-1.12310E+09-8.44475E+09
 -1       106-2.83823E+09-2.50630E+09 3.85296E+10 9.70029E+07 1.27529E+09-1.01963E+10
 -1       107-4.83734E-01-6.82572E-02-1.79023E-01-3.34760E-01-9.39271E+08-2.81534E+10
 -1       108-1.05707E+08-7.85380E+07 1.18614E+09-8.60654E+07-2.81739E+08-3.36635E+10
 -1       109-1.05759E+09-6.32054E+08 9.91261E+10 5.70937E+06-1.23001E+09-7.08275E+08
 -1       110-2.64604E+09-3.06561E+09 3.64466E+10 2.54499E+08 5.85174E+08-8.16882E+09
 -1       111-1.50448E+09-1.26372E+08 1.03739E+11 3.39812E+08 2.28621E+09-3.20988E+09
 -1       112-1.00321E+09-9.63413E+08 2.05285E+10 4.99904E+06-9.92104E+08-1.89207E+10
 -1       113-1.25444E+09-4.82661E+08 2.31731E+10 5.01354E+07 8.34037E+07-2.25380E+10
 -1       114-3.56412E-01-6.81589E-02-9.86455E-02 2.10648E-02-9.66460E+08-2.89684E+10
 -1       115-3.21420E+07-3.34698E+07 6.84883E+08 1.49840E+08-6.31243E+08-2.97370E+10
 -1       116-2.10870E+07-3.52839E+07 3.30710E+09 1.71131E+08-2.36299E+07-3.68678E+10
 -1       117-2.71808E+09-2.92504E+09-9.15920E+09 6.14167E+06-1.54036E+08-1.74054E+09
 -1       118-3.37641E+09-2.51746E+09-9.97548E+09 2.12185E+08 1.33097E+08-2.11616E+09
 -1       119-7.29775E-01-6.22869E-01-4.22757E-01-3.34276E-01-1.17988E+08-3.53655E+09
 -1       120-9.75869E+07-9.06821E+07-3.05575E+08 1.84089E+08-5.80689E+07-4.61703E+09
 -1       121-1.20829E+09-9.49644E+08 1.27400E+10 5.62643E+06-4.50612E+08-7.86047E+07
 -1       122-3.17625E+09-2.97333E+09-1.01405E+10 3.46329E+08-1.02515E+08-1.48945E+09
 -1       123-1.55466E+09-2.68627E+08 1.39816E+10 3.06574E+08 6.84999E+08-8.50267E+08
 -1       124-1.34376E+09-7.45805E+08-1.77426E+09 1.09315E+07-1.20765E+08-2.96098E+09
 -1       125-1.71245E+09-4.25838E+08-1.81974E+09 2.15543E+08-1.09503E+07-3.70587E+09
 -1       126-3.78356E-01-2.25654E-01-2.04208E-01-2.25826E-01-3.49377E+08-1.04721E+10
 -1       127-2.48820E+07-4.48312E+07-5.91941E+07 3.27657E+08-9.87859E+07-3.61976E+09
 -1       128-3.16826E+07-4.03118E+07 4.25041E+08 1.68645E+08-2.62246E+06-1.35065E+10
 -1       129-1.27564E+12-1.27563E+12-2.97644E+12-5.41030E+03 4.14487E+11-6.32304E+10
 -1       130-1.22603E+12-1.22603E+12-2.86070E+12-6.06412E+02 5.74175E+09-2.57479E+11
 -1       131 1.36244E+10-9.08356E+10-2.44498E+12-1.14034E+09-5.12991E+09 4.27031E+10
 -1       132 2.96311E+10-2.56214E+10-2.26104E+12 4.41189E+10-7.63884E+10-1.61705E+10
 -1       133-6.09470E+11-6.09471E+11-1.42214E+12-6.74606E+05 2.02551E+11 7.58411E+10
 -1       134-6.03230E+11-6.03231E+11-1.40758E+12 1.22544E+04 2.01839E+09-1.11542E+11
 -1       135-8.89903E+10-8.29394E+10-1.25672E+12 6.94672E+07-4.81836E+09-3.19856E+10
 -1       136-8.18374E+10-5.09279E+10-1.12290E+12 3.81334E+10-4.02383E+10-7.83145E+10
 -1       137-1.24986E+12-1.24986E+12-2.91639E+12-3.72224E+05 2.10113E+11-1.80781E+11
 -1       138-1.09585E+11-5.77678E+10-2.41000E+12 2.28170E+09-5.91016E+08-1.19391E+11
 -1       139 2.08750E+10-5.64421E+10-2.35493E+12 6.89519E+09-2.90650E+10 5.09680E+09
 -1       140-1.02255E+11-2.82878E+10-2.29987E+12-6.33413E+10 9.41387E+10-2.83481E+10
 -1       141-4.58275E+10-1.54887E+10-1.93971E+12 3.30941E+08-4.87881E+09-3.13279E+10
 -1       142-4.43263E+10-1.67684E+10-1.86977E+12-7.94419E+09-8.10699E+09-3.44098E+10
 -1       143-6.10473E+09-1.72881E+09-9.65967E+11 3.94946E+07-4.18182E+09-8.05257E+10
 -1       144-9.40091E+09-2.53527E+09-8.97390E+11-8.64605E+09-1.66058E+09-9.53453E+10
 -1       145 6.77579E+10 2.17787E+10-2.06677E+12-3.92530E+08-3.38140E+09 4.79373E+09
 -1       146-4.61022E+10-1.77421E+10-1.90813E+12 4.50023E+08-1.01430E+10-2.54416E+10
 -1       147 5.84142E+10 2.47587E+10-2.01424E+12 1.27807E+10-7.22467E+09-9.75022E+09
 -1       148 1.04144E+10 3.01664E+09-1.56353E+12-7.27594E+07-4.51337E+09-3.40773E+10
 -1       149 8.53462E+09 3.14604E+09-1.51224E+12 2.36869E+09-8.10398E+09-4.16467E+10
 -1       150-1.56206E+08-7.48610E+08-7.84481E+11 1.34142E+06-4.00323E+09-7.54217E+10
 -1       151-9.93681E+08-9.94188E+08-7.33386E+11 2.18903E+09-2.71214E+09-9.04553E+10
 -1       152-1.43139E+10-4.20702E+09-1.74686E+12 1.02277E+08-3.56148E+09-3.53180E+09
 -1       153 9.50762E+09 3.38719E+09-1.53736E+12 2.81966E+08-8.51848E+09-3.35520E+10
 -1       154-1.08200E+10-3.99090E+09-1.68674E+12-3.34213E+09-6.34294E+09-9.82079E+09
 -1       155-2.17870E+09 5.50850E+07-1.22189E+12 2.06509E+07-4.34048E+09-3.19402E+10
 -1       156-1.87901E+09-2.92132E+08-1.18147E+12-5.68649E+08-7.54252E+09-3.87382E+10
 -1       157 2.02644E+08 3.89537E+08-6.11110E+11-7.13040E+05-3.82765E+09-7.29708E+10
 -1       158 9.48804E+07 1.22786E+08-5.70688E+11-5.62905E+08-2.31175E+09-8.70641E+10
 -1       159 3.93720E+09 1.12658E+09-1.39279E+12-2.89471E+07-3.38013E+09-1.81943E+09
 -1       160-1.93723E+09-6.86906E+07-1.20154E+12 2.26409E+07-8.24770E+09-3.05690E+10
 -1       161 3.44417E+09 1.11197E+09-1.34690E+12 8.92588E+08-6.73515E+09-9.27686E+09
 -1       162 1.68262E+09 1.46651E+09-8.97661E+11-3.15802E+06-3.98245E+09-2.97815E+10
 -1       163 1.72577E+09 1.19417E+09-8.68287E+11 1.76806E+08-6.94185E+09-3.62016E+10
 -1       164 3.76023E+08 3.08145E+08-4.50197E+11-1.52350E+06-3.51676E+09-6.69797E+10
 -1       165 3.90315E+08 7.27917E+07-4.20800E+11 1.39346E+08-2.15329E+09-8.00330E+10
 -1       166-5.15084E+08 3.89745E+07-1.05963E+12 4.86423E+06-3.19111E+09-1.75030E+09
 -1       167 1.73961E+09 1.44271E+09-8.82655E+11 1.09491E+08-7.57712E+09-2.87355E+10
 -1       168-2.04198E+08-1.99131E+08-1.02464E+12-1.08052E+08-6.30564E+09-8.43309E+09
 -1       169 1.10052E+09 1.64720E+09-6.06096E+11 3.21177E+06-3.50736E+09-2.60794E+10
 -1       170 1.30481E+09 1.26829E+09-5.86589E+11-2.21288E+07-6.12198E+09-3.17132E+10
 -1       171 5.04430E+08 4.82187E+08-3.04561E+11-2.36829E+06-3.09635E+09-5.89740E+10
 -1       172 5.12711E+08 1.47020E+08-2.85066E+11-4.39246E+07-1.89808E+09-7.04444E+10
 -1       173 7.49135E+08 3.63315E+08-7.52046E+11-4.58746E+06-2.87046E+09-1.62397E+09
 -1       174 1.29389E+09 1.61426E+09-5.95874E+11 1.15617E+08-6.67215E+09-2.51226E+10
 -1       175 9.13121E+08 5.97286E+07-7.27599E+11 2.11106E+08-5.66635E+09-7.69198E+09
 -1       176 1.69232E+09 2.19446E+09-3.56887E+11 2.40789E+06-2.87378E+09-2.14138E+10
 -1       177 1.93112E+09 1.71180E+09-3.45910E+11 3.97002E+07-5.02488E+09-2.60385E+10
 -1       178 6.47826E+08 6.06735E+08-1.80445E+11-2.90772E+06-2.53714E+09-4.83261E+10
 -1       179 6.70759E+08 1.84931E+08-1.69465E+11 1.43104E+06-1.55636E+09-5.77354E+10
 -1       180 6.50889E+08 4.18823E+08-4.81520E+11-3.41997E+06-2.44686E+09-1.35385E+09
 -1       181 1.91390E+09 2.14799E+09-3.50793E+11 1.56835E+08-5.47657E+09-2.06380E+10
 -1       182 9.22952E+08 1.22052E+07-4.66279E+11 1.88766E+08-4.85187E+09-6.53028E+09
 -1       183 2.02845E+09 2.66684E+09-1.62585E+11 3.26299E+06-2.08436E+09-1.54792E+10
 -1       184 2.31781E+09 2.08224E+09-1.58284E+11 2.49227E+07-3.63076E+09-1.88233E+10
 -1       185 7.92447E+08 7.32054E+08-8.37478E+10-3.73644E+06-1.83961E+09-3.50174E+10
 -1       186 8.21829E+08 2.15772E+08-7.94672E+10-1.64422E+07-1.11259E+09-4.18458E+10
 -1       187 8.93931E+08 5.35546E+08-2.59797E+11-4.83146E+06-1.90202E+09-1.04815E+09
 -1       188 2.30795E+09 2.62444E+09-1.59650E+11 1.92253E+08-3.98626E+09-1.49028E+10
 -1       189 1.20743E+09 2.41343E+07-2.52176E+11 2.56215E+08-3.76828E+09-5.07378E+09
 -1       190 2.35407E+09 3.16842E+09-3.55531E+10 2.87137E+06-1.12310E+09-8.44475E+09
 -1       191 2.67713E+09 2.32229E+09-3.60417E+10 9.07393E+07-1.95924E+09-1.03042E+10
 -1       192 1.00321E+09 9.63413E+08-2.05285E+10-4.99904E+06-9.92104E+08-1.89207E+10
 -1       193 1.05245E+09 3.06982E+08-2.07902E+10 3.32467E+07-6.29263E+08-2.26273E+10
 -1       194 1.05759E+09 6.32054E+08-9.91261E+10-5.70937E+06-1.23001E+09-7.08275E+08
 -1       195 2.61970E+09 2.98864E+09-3.49798E+10 2.51717E+08-2.09200E+09-8.19260E+09
 -1       196 1.49939E+09 2.61555E+07-9.70405E+10 3.17870E+08-2.50573E+09-3.36975E+09
 -1       197 2.71808E+09 2.92504E+09 9.15920E+09-6.14167E+06-1.54036E+08-1.74054E+09
 -1       198 3.21577E+09 2.29752E+09 9.33136E+09 1.98484E+08-2.74752E+08-2.12977E+09
 -1       199 1.34376E+09 7.45805E+08 1.77426E+09-1.09315E+07-1.20765E+08-2.96098E+09
 -1       200 1.51765E+09 2.14614E+08 1.14642E+09 1.92889E+08-8.85199E+07-3.70728E+09
 -1       201 1.20829E+09 9.49644E+08-1.27400E+10-5.62643E+06-4.50612E+08-7.86047E+07
 -1       202 3.15489E+09 2.86557E+09 1.00415E+10 3.32703E+08-1.44807E+08-1.49204E+09
 -1       203 1.54018E+09 1.65376E+08-1.30788E+10 2.86778E+08-7.43323E+08-8.97919E+08
 -1       204 1.27564E+12 1.27563E+12 2.97644E+12 5.41030E+03 4.14487E+11-6.32304E+10
 -1       205-2.96311E+10 2.56214E+10 2.26104E+12-4.41189E+10-7.63884E+10-1.61705E+10
 -1       206-4.09036E+10-4.09037E+10-9.54405E+10-1.81764E+04-8.59016E+09 1.72102E+11
 -1       207-3.03051E+09 4.54544E+08-8.15707E+10-3.41802E+10 1.42469E+09-1.53762E+11
 -1       208 1.24986E+12 1.24986E+12 2.91639E+12 3.72224E+05 2.10113E+11-1.80781E+11
 -1       209 1.02255E+11 2.82878E+10 2.29987E+12 6.33413E+10 9.41387E+10-2.83481E+10
 -1       210-2.08750E+10 5.64421E+10 2.35493E+12-6.89519E+09-2.90650E+10 5.09680E+09
 -1       211 6.09470E+11 6.09471E+11 1.42214E+12 6.74606E+05 2.02551E+11 7.58411E+10
 -1       212 8.18374E+10 5.09279E+10 1.12290E+12-3.81334E+10-4.02383E+10-7.83145E+10
 -1       213-2.01253E+10-2.01253E+10-4.69606E+10 3.67309E+05-3.72133E+09 6.04985E+10
 -1       214-1.92728E+09-3.65605E+09-8.04038E+10 6.83911E+10-3.98320E+09-1.77149E+10
 -1       215-2.76707E+09-2.96895E+09-4.19275E+10 2.08219E+09-1.06712E+09-1.44424E+11
 -1       216 4.43263E+10 1.67684E+10 1.86977E+12 7.94419E+09-8.10699E+09-3.44098E+10
 -1       217-5.16743E+08-1.52892E+09-6.47136E+10 9.91952E+09-1.04518E+09-1.46236E+11
 -1       218-5.84142E+10-2.47587E+10 2.01424E+12-1.27807E+10-7.22467E+09-9.75022E+09
 -1       219 4.61022E+10 1.77421E+10 1.90813E+12-4.50023E+08-1.01430E+10-2.54416E+10
 -1       220 9.40091E+09 2.53527E+09 8.97390E+11 8.64605E+09-1.66058E+09-9.53453E+10
 -1       221 7.26595E+08 2.26058E+09-6.89527E+10-1.17656E+10 1.59931E+08-1.01353E+11
 -1       222-5.76777E+07-2.03670E+08-3.22272E+10 1.18380E+09-2.68655E+09-1.25344E+11
 -1       223-8.53462E+09-3.14604E+09 1.51224E+12-2.36869E+09-8.10398E+09-4.16467E+10
 -1       224 1.00643E+08 3.47451E+08-5.21635E+10-2.18087E+09-1.13691E+09-1.35282E+11
 -1       225 1.08200E+10 3.99090E+09 1.68674E+12 3.34213E+09-6.34294E+09-9.82079E+09
 -1       226-9.50762E+09-3.38719E+09 1.53736E+12-2.81966E+08-8.51848E+09-3.35520E+10
 -1       227 9.93681E+08 9.94188E+08 7.33386E+11-2.18903E+09-2.71214E+09-9.04553E+10
 -1       228-1.40357E+08-4.77549E+08-5.82796E+10 3.06561E+09-1.17830E+08-1.06751E+11
 -1       229-2.49756E+07-5.21144E+06-2.61723E+10 4.02072E+07-2.51626E+09-1.19992E+11
 -1       230 1.87901E+09 2.92132E+08 1.18147E+12 5.68649E+08-7.54252E+09-3.87382E+10
 -1       231 1.83778E+06-7.26871E+07-4.07653E+10 6.18984E+08-1.06561E+09-1.30100E+11
 -1       232-3.44417E+09-1.11197E+09 1.34690E+12-8.92588E+08-6.73515E+09-9.27686E+09
 -1       233 1.93723E+09 6.86906E+07 1.20154E+12-2.26409E+07-8.24770E+09-3.05690E+10
 -1       234-9.48804E+07-1.22786E+08 5.70688E+11 5.62905E+08-2.31175E+09-8.70641E+10
 -1       235 3.75856E+07 1.31355E+08-4.64672E+10-8.67651E+08-6.07010E+07-1.01315E+11
 -1       236 1.29960E+07 6.76072E+06-2.03882E+10-2.13724E+07-2.43449E+09-1.14729E+11
 -1       237-1.72577E+09-1.19417E+09 8.68287E+11-1.76806E+08-6.94185E+09-3.62016E+10
 -1       238 4.89264E+07 5.61366E+07-2.99483E+10-9.46577E+07-9.93588E+08-1.19369E+11
 -1       239 2.04198E+08 1.99131E+08 1.02464E+12 1.08052E+08-6.30564E+09-8.43309E+09
 -1       240-1.73961E+09-1.44271E+09 8.82655E+11-1.09491E+08-7.57712E+09-2.87355E+10
 -1       241-3.90315E+08-7.27917E+07 4.20800E+11-1.39346E+08-2.15329E+09-8.00330E+10
 -1       242 1.30029E+06-1.71845E+07-3.53520E+10 1.45799E+08-5.83945E+07-9.56494E+10
 -1       243 1.02805E+07 1.25451E+07-1.50197E+10-4.56649E+07-2.23462E+09-1.05410E+11
 -1       244-1.30481E+09-1.26829E+09 5.86589E+11 2.21288E+07-6.12198E+09-3.17132E+10
 -1       245 5.49547E+07 3.67161E+07-2.02209E+10 9.62688E+07-8.70075E+08-1.05128E+11
 -1       246-9.13121E+08-5.97286E+07 7.27599E+11-2.11106E+08-5.66635E+09-7.69198E+09
 -1       247-1.29389E+09-1.61426E+09 5.95874E+11-1.15617E+08-6.67215E+09-2.51226E+10
 -1       248-5.12711E+08-1.47020E+08 2.85066E+11 4.39246E+07-1.89808E+09-7.04444E+10
 -1       249 1.21211E+07 2.49931E+07-2.50902E+10-1.37503E+08-5.41799E+07-8.60383E+10
 -1       250 1.60870E+07 1.68291E+07-1.01610E+10-7.09864E+07-1.96753E+09-9.28091E+10
 -1       251-1.93112E+09-1.71180E+09 3.45910E+11-3.97002E+07-5.02488E+09-2.60385E+10
 -1       252 7.32127E+07 5.64601E+07-1.19067E+10 7.21733E+07-7.14421E+08-8.61377E+10
 -1       253-9.22952E+08-1.22052E+07 4.66279E+11-1.88766E+08-4.85187E+09-6.53028E+09
 -1       254-1.91390E+09-2.14799E+09 3.50793E+11-1.56835E+08-5.47657E+09-2.06380E+10
 -1       255-6.70759E+08-1.84931E+08 1.69465E+11-1.43104E+06-1.55636E+09-5.77354E+10
 -1       256 1.39730E+07 2.17154E+07-1.60647E+10-1.02509E+08-4.51678E+07-7.33415E+10
 -1       257 2.02422E+07 2.16132E+07-6.02010E+09-8.71551E+07-1.61229E+09-7.60474E+10
 -1       258-2.31781E+09-2.08224E+09 1.58284E+11-2.49227E+07-3.63076E+09-1.88233E+10
 -1       259 8.89726E+07 6.76743E+07-5.42426E+09 9.78040E+07-5.16425E+08-6.24758E+10
 -1       260-1.20743E+09-2.41343E+07 2.52176E+11-2.56215E+08-3.76828E+09-5.07378E+09
 -1       261-2.30795E+09-2.62444E+09 1.59650E+11-1.92253E+08-3.98626E+09-1.49028E+10
 -1       262-8.21829E+08-2.15772E+08 7.94672E+10 1.64422E+07-1.11259E+09-4.18458E+10
 -1       263 1.78672E+07 2.98238E+07-8.66749E+09-1.44817E+08-3.49690E+07-5.70106E+10
 -1       264 2.44232E+07 2.64381E+07-2.79404E+09-1.11995E+08-1.16827E+09-5.51398E+10
 -1       265-2.67713E+09-2.32229E+09 3.60417E+10-9.07393E+07-1.95924E+09-1.03042E+10
 -1       266 1.05707E+08 7.85380E+07-1.18614E+09 8.60654E+07-2.81739E+08-3.36635E+10
 -1       267-1.49939E+09-2.61555E+07 9.70405E+10-3.17870E+08-2.50573E+09-3.36975E+09
 -1       268-2.61970E+09-2.98864E+09 3.49798E+10-2.51717E+08-2.09200E+09-8.19260E+09
 -1       269-1.05245E+09-3.06982E+08 2.07902E+10-3.32467E+07-6.29263E+08-2.26273E+10
 -1       270 2.10870E+07 3.52839E+07-3.30710E+09-1.71131E+08-2.36299E+07-3.68678E+10
 -1       271 3.21420E+07 3.34698E+07-6.84883E+08-1.49840E+08-6.31243E+08-2.97370E+10
 -1       272-3.21577E+09-2.29752E+09-9.33136E+09-1.98484E+08-2.74752E+08-2.12977E+09
 -1       273 9.75869E+07 9.06821E+07 3.05575E+08-1.84089E+08-5.80689E+07-4.61703E+09
 -1       274-1.54018E+09-1.65376E+08 1.30788E+10-2.86778E+08-7.43323E+08-8.97919E+08
 -1       275-3.15489E+09-2.86557E+09-1.00415E+10-3.32703E+08-1.44807E+08-1.49204E+09
 -1       276-1.51765E+09-2.14614E+08-1.14642E+09-1.92889E+08-8.85199E+07-3.70728E+09
 -1       277 3.16826E+07 4.03118E+07-4.25041E+08-1.68645E+08-2.62246E+06-1.35065E+10
 -1       278 2.48820E+07 4.48312E+07 5.91941E+07-3.27657E+08-9.87859E+07-3.61976E+09
 -1       279-1.36369E+12-1.36369E+12-3.18190E+12 5.78377E+03-4.19634E+11-9.10588E+10
 -1       280 2.79857E+10-2.36991E+10-2.41711E+12-4.71643E+10 7.54785E+10-1.11039E+10
 -1       281-6.94319E+11-6.94320E+11-1.62013E+12 7.00974E+05-2.15078E+11 6.19747E+10
 -1       282-8.57901E+10-4.96469E+10-1.28272E+12-3.86790E+10 4.06685E+10-7.65475E+10
 -1       283-1.29336E+12-1.29336E+12-3.01789E+12 4.18117E+05-2.05515E+11-1.94714E+11
 -1       284-1.04373E+11-3.51814E+10-2.45862E+12 6.77136E+10-9.62421E+10-3.46997E+10
 -1       285 1.75196E+10-6.20346E+10-2.43519E+12-9.45785E+09 2.38984E+10 7.79606E+09
 -1       286-4.55452E+10-1.97668E+10-1.99884E+12 8.49256E+09 5.82650E+09-3.39449E+10
 -1       287-1.06070E+10-5.62052E+09-1.02685E+12 8.63526E+09-3.52018E+07-9.48802E+10
 -1       288 6.01983E+10 2.87160E+10-2.15328E+12-1.36629E+10 6.58947E+09-9.28934E+09
 -1       289-4.63743E+10-1.84097E+10-1.97233E+12 1.26526E+08 3.79656E+09-2.53874E+10
 -1       290 8.76379E+09 3.72316E+09-1.61663E+12-2.53219E+09 5.34006E+09-4.11981E+10
 -1       291-7.69632E+08-3.61299E+08-8.37715E+11-2.21275E+09 4.76925E+08-9.00879E+10
 -1       292-1.11107E+10-4.72257E+09-1.80317E+12 3.57283E+09 5.70105E+09-9.41897E+09
 -1       293 9.46240E+09 3.32836E+09-1.58977E+12-4.28821E+08 2.49509E+09-3.34456E+10
 -1       294-1.90272E+09-4.18301E+08-1.26302E+12 6.07902E+08 4.97163E+09-3.83207E+10
 -1       295 9.05033E+07-6.34656E+06-6.52222E+11 5.62647E+08 2.74910E+08-8.67072E+10
 -1       296 3.52612E+09 1.34452E+09-1.43987E+12-9.54201E+08 6.13047E+09-8.84763E+09
 -1       297-1.93334E+09-6.25057E+07-1.24234E+12 1.49104E+07 2.45024E+09-3.04827E+10
 -1       298 1.80939E+09 1.31211E+09-9.28224E+11-1.89011E+08 4.53907E+09-3.58186E+10
 -1       299 4.87557E+08 1.89159E+08-4.80699E+11-1.46970E+08 2.38574E+08-7.97052E+10
 -1       300-2.17954E+08-2.13215E+08-1.09537E+12 1.15511E+08 5.75637E+09-8.03067E+09
 -1       301 1.74835E+09 1.47200E+09-9.12731E+11-1.19044E+08 2.24784E+09-2.86557E+10
 -1       302 1.39244E+09 1.35828E+09-6.27081E+11 2.36563E+07 4.01720E+09-3.13749E+10
 -1       303 6.21686E+08 2.33779E+08-3.25505E+11 3.62993E+07 2.24139E+08-7.01556E+10
 -1       304 9.19145E+08 1.20858E+08-7.77824E+11-2.25678E+08 5.16516E+09-7.33061E+09
 -1       305 1.30660E+09 1.65211E+09-6.16244E+11-1.12940E+08 1.98137E+09-2.50518E+10
 -1       306 2.04977E+09 1.84461E+09-3.69787E+11-4.24406E+07 3.29671E+09-2.57609E+10
 -1       307 8.15738E+08 3.13190E+08-1.93275E+11-1.19108E+07 1.81215E+08-5.74982E+10
 -1       308 9.25824E+08 7.38852E+07-4.98466E+11-2.01796E+08 4.42646E+09-6.22073E+09
 -1       309 1.93052E+09 2.19758E+09-3.62895E+11-1.57280E+08 1.63208E+09-2.05800E+10
 -1       310 2.46206E+09 2.24171E+09-1.69211E+11-2.66431E+07 2.38146E+09-1.86227E+10
 -1       311 9.98972E+08 3.70422E+08-9.03088E+10 3.63647E+06 1.19571E+08-4.16727E+10
 -1       312 1.21173E+09 1.04844E+08-2.69583E+11-2.73901E+08 3.43776E+09-4.83336E+09
 -1       313 2.32751E+09 2.68519E+09-1.65314E+11-1.91583E+08 1.19987E+09-1.48617E+10
 -1       314 2.83823E+09 2.50630E+09-3.85296E+10-9.70029E+07 1.27529E+09-1.01963E+10
 -1       315 1.25444E+09 4.82661E+08-2.31731E+10-5.01354E+07 8.34037E+07-2.25380E+10
 -1       316 1.50448E+09 1.26372E+08-1.03739E+11-3.39812E+08 2.28621E+09-3.20988E+09
 -1       317 2.64604E+09 3.06561E+09-3.64466E+10-2.54499E+08 5.85174E+08-8.16882E+09
 -1       318 3.37641E+09 2.51746E+09 9.97548E+09-2.12185E+08 1.33097E+08-2.11616E+09
 -1       319 1.71245E+09 4.25838E+08 1.81974E+09-2.15543E+08-1.09503E+07-3.70587E+09
 -1       320 1.55466E+09 2.68627E+08-1.39816E+10-3.06574E+08 6.84999E+08-8.50267E+08
 -1       321 3.17625E+09 2.97333E+09 1.01405E+10-3.46329E+08-1.02515E+08-1.48945E+09
 -3
    1PSTEP                         7           1           1          
    1PGM                1.000000E+00                                  
    1PGK                2.768264E+07                                  
    1PHID                         -1                                  
    1PSUBC                         0                                  
    1PMODE                         2                                  
  100CL  102 837.3825237         321                     2    2MODAL      1
 -4  TOSTRAIN    6    1
 -5  EXX         1    4    1    1
 -5  EYY         1    4    2    2
 -5  EZZ         1    4    3    3
 -5  EXY         1    4    1    2
 -5  EYZ         1    4    2    3
 -5  EZX         1    4    3    1
 -1         1 6.59734E-05 5.83726E-05 1.12556E+01-3.58043E-08-2.59773E+00-5.63697E-01
 -1         2 6.41372E-05 5.63443E-05 1.01194E+01 3.75398E-09 3.55442E-02-1.59392E+00
 -1         3-3.68747E+00-3.04081E+00 1.15324E+01 7.05925E-03-3.17566E-02 2.64353E-01
 -1         4-3.62014E+00-3.30019E+00 1.15162E+01 2.91970E-01 4.67248E-01-6.87383E-02
 -1         5 1.87979E-06 2.13978E-06 3.37611E-01 1.12521E-07-5.31772E-02 1.06539E+00
 -1         6 9.47419E-15-6.83481E-16 5.68434E-14 1.06306E-15-2.05874E-03-6.17081E-02
 -1         7 9.05803E-14-1.13087E-14 1.23727E-13 5.46577E-14-2.45766E-02-7.36653E-01
 -1         8-1.01449E-01-1.23023E-01 3.84752E-01 2.11592E-01 8.81949E-03-9.51862E-01
 -1         9-6.62769E-05-6.49010E-05 1.06756E+01-2.58834E-06-1.27224E+00-1.20537E+00
 -1        10-3.00355E+00-3.32432E+00 1.12371E+01-1.41248E-02-3.65867E-03-7.39088E-01
 -1        11-3.65089E+00-3.15842E+00 1.15326E+01 5.85486E-02 1.47942E-01 4.82613E-02
 -1        12-3.06556E+00-3.49389E+00 1.15084E+01-4.19179E-01-5.95784E-01-2.14808E-01
 -1        13-7.04298E-05-6.48046E-05 5.73111E+00-4.33936E-06-1.33144E+00 3.83653E-01
 -1        14-6.80475E-05-6.27946E-05 4.97926E+00-7.58604E-08 1.24948E-02-6.90498E-01
 -1        15-1.49004E+00-1.52750E+00 5.73878E+00-4.30035E-04-2.98279E-02-1.98006E-01
 -1        16-1.49485E+00-1.71859E+00 5.91469E+00 2.39441E-01 2.51757E-01-4.73865E-01
 -1        17-2.09499E-06-2.27024E-06 1.66121E-01-2.27382E-06-2.30368E-02 3.74514E-01
 -1        18-3.33067E-15-2.71675E-14 8.50674E-14 3.58602E-14-2.30181E-02-6.89938E-01
 -1        19-5.09613E-02-4.97116E-02 1.91461E-01-1.28897E-02-6.60600E-03-8.94053E-01
 -1        20-1.10908E-01-1.00206E-01 3.74899E-01-4.23374E-01-2.46579E-02-1.09664E-01
 -1        21-2.57491E+00-2.76272E+00 9.14910E+00-2.04868E-03-3.02022E-02-1.93934E-01
 -1        22-2.66684E+00-2.82642E+00 9.42499E+00-5.25730E-02 3.60688E-02-2.10135E-01
 -1        23 2.72983E-13-4.26582E-14-2.65343E-14 3.42825E-14-2.46219E-02-7.38008E-01
 -1        24-9.21715E-02-8.59056E-02 3.05238E-01-6.14066E-02-6.47015E-03-9.05271E-01
 -1        25-3.24407E+00-2.95944E+00 9.96966E+00 2.42995E-03-2.09325E-02 2.96755E-02
 -1        26-2.62308E+00-2.79620E+00 9.29949E+00-7.83255E-04 2.35025E-02-1.57160E-01
 -1        27-3.32175E+00-3.12686E+00 1.03807E+01 8.45801E-02 4.07919E-02-5.75055E-02
 -1        28-1.35335E+00-1.38044E+00 4.58865E+00-2.44491E-04-2.58874E-02-4.98492E-01
 -1        29-1.42445E+00-1.45532E+00 4.86659E+00-5.34564E-02-2.17916E-04-5.87354E-01
 -1        30 5.02584E-14 1.15255E-14 5.83630E-14 2.35506E-14-1.83564E-02-5.50208E-01
 -1        31-4.60551E-02-4.51513E-02 1.53089E-01-7.32829E-03-1.66310E-02-7.75942E-01
 -1        32-9.87345E-02-1.08231E-01 3.32614E-01 7.28345E-02 9.90050E-04-6.27424E-01
 -1        33-2.27890E+00-2.23310E+00 7.46458E+00 4.50415E-04-2.79399E-02-2.10955E-01
 -1        34-2.34588E+00-2.31468E+00 7.71607E+00 1.56755E-02 3.30575E-02-2.55036E-01
 -1        35 3.22624E-14-1.74284E-13 1.29835E-13-2.86364E-13-2.33630E-02-7.00275E-01
 -1        36-7.45021E-02-7.60300E-02 2.49038E-01 1.35006E-02-7.03800E-03-8.37462E-01
 -1        37-2.43336E+00-2.49592E+00 8.29190E+00-6.33141E-04-2.20472E-02-2.18635E-02
 -1        38-2.31141E+00-2.27344E+00 7.58863E+00 2.65461E-03 1.54458E-02-2.07044E-01
 -1        39-2.52980E+00-2.56935E+00 8.56392E+00-2.21175E-02 3.52922E-02-5.83079E-02
 -1        40-1.12101E+00-1.11735E+00 3.73433E+00-8.30401E-06-2.47819E-02-4.66896E-01
 -1        41-1.19359E+00-1.19611E+00 3.98750E+00 1.36980E-02 2.95239E-03-5.57687E-01
 -1        42-5.70897E-15-1.72850E-13 2.74815E-14-1.06196E-13-1.71929E-02-5.15335E-01
 -1        43-3.72775E-02-3.73999E-02 1.24587E-01-2.48902E-04-1.55769E-02-7.42805E-01
 -1        44-8.32705E-02-8.11831E-02 2.76639E-01-1.89776E-02-7.29423E-04-6.60837E-01
 -1        45-1.73510E+00-1.74893E+00 5.81548E+00-1.27839E-04-2.68697E-02-1.97725E-01
 -1        46-1.79585E+00-1.80504E+00 6.01107E+00-3.76320E-03 3.07768E-02-2.37223E-01
 -1        47-9.41587E-13 9.02139E-14-1.95764E-15-3.46981E-13-2.24706E-02-6.73526E-01
 -1        48-5.83488E-02-5.78875E-02 1.94020E-01-3.83181E-03-6.59662E-03-8.05383E-01
 -1        49-2.00684E+00-1.98945E+00 6.63959E+00 1.79196E-04-2.09246E-02-1.12632E-02
 -1        50-1.76565E+00-1.77723E+00 5.91305E+00-9.23027E-05 1.51681E-02-1.88702E-01
 -1        51-2.07183E+00-2.05832E+00 6.86349E+00 5.90696E-03 3.79505E-02-5.47710E-02
 -1        52-8.73424E-01-8.74580E-01 2.91090E+00 4.41406E-06-2.36950E-02-4.51724E-01
 -1        53-9.32186E-01-9.31586E-01 3.10594E+00-3.48305E-03 1.70182E-03-5.36759E-01
 -1        54-2.15028E-13-2.70407E-13 1.50251E-13-3.25551E-13-1.64887E-02-4.94229E-01
 -1        55-2.91783E-02-2.91397E-02 9.71150E-02 1.32306E-04-1.50707E-02-7.10226E-01
 -1        56-6.63730E-02-6.69535E-02 2.21514E-01 5.37117E-03-3.75768E-04-6.27188E-01
 -1        57-1.28829E+00-1.28695E+00 4.27908E+00 1.95497E-05-2.46533E-02-1.84362E-01
 -1        58-1.33278E+00-1.32970E+00 4.42457E+00 1.17007E-03 2.80990E-02-2.21734E-01
 -1        59-1.39963E-13 9.83264E-13 4.22190E-13-2.01832E-14-2.06178E-02-6.17990E-01
 -1        60-4.29361E-02-4.29807E-02 1.42761E-01 5.85976E-04-6.15078E-03-7.38950E-01
 -1        61-1.51125E+00-1.51468E+00 5.04518E+00-3.01119E-05-1.97545E-02-1.08352E-02
 -1        62-1.31012E+00-1.30841E+00 4.35094E+00 7.36937E-04 1.39152E-02-1.77392E-01
 -1        63-1.56408E+00-1.56410E+00 5.21541E+00-7.15068E-04 3.56347E-02-4.97137E-02
 -1        64-6.44488E-01-6.44068E-01 2.14477E+00 9.43118E-06-2.17704E-02-4.14636E-01
 -1        65-6.88764E-01-6.86916E-01 2.29001E+00 9.09815E-04 1.47689E-03-4.93413E-01
 -1        66-5.71829E-13 6.13054E-13 2.10351E-13-1.90764E-13-1.55297E-02-4.65482E-01
 -1        67-2.14878E-02-2.15018E-02 7.15551E-02 2.82687E-04-1.38333E-02-6.52540E-01
 -1        68-5.05337E-02-5.04192E-02 1.68320E-01-9.02565E-04-3.61490E-04-5.92115E-01
 -1        69-8.68739E-01-8.72123E-01 2.89010E+00-1.98824E-05-2.17122E-02-1.61444E-01
 -1        70-9.00520E-01-9.00308E-01 2.99003E+00-1.46444E-04 2.48684E-02-1.94225E-01
 -1        71-1.64454E-12-1.00919E-13 1.34416E-13 6.32285E-13-1.81607E-02-5.44342E-01
 -1        72-2.90963E-02-2.89834E-02 9.64211E-02-5.95949E-04-5.38618E-03-6.50795E-01
 -1        73-1.07740E+00-1.07501E+00 3.58276E+00 2.83985E-05-1.77695E-02-1.00532E-02
 -1        74-8.84211E-01-8.86350E-01 2.93872E+00 6.99155E-04 1.22656E-02-1.55082E-01
 -1        75-1.11538E+00-1.11044E+00 3.70541E+00 1.39706E-03 3.19748E-02-4.53800E-02
 -1        76-4.36801E-01-4.36663E-01 1.45170E+00 1.46608E-05-1.91679E-02-3.65077E-01
 -1        77-4.67634E-01-4.65233E-01 1.55125E+00-2.24710E-04 1.38753E-03-4.34297E-01
 -1        78-1.21483E-12 7.29384E-13 1.99169E-13 1.36162E-13-1.39689E-02-4.18698E-01
 -1        79-1.45682E-02-1.45728E-02 4.84325E-02 4.39440E-04-1.21799E-02-5.74533E-01
 -1        80-3.58652E-02-3.59448E-02 1.19530E-01 8.51209E-04-3.35399E-04-5.32618E-01
 -1        81-5.14762E-01-5.17871E-01 1.70501E+00-1.49060E-05-1.77900E-02-1.32562E-01
 -1        82-5.35393E-01-5.34123E-01 1.76645E+00 2.62728E-04 2.04082E-02-1.59472E-01
 -1        83 7.54984E-13-6.58187E-13 4.07790E-15-1.59325E-13-1.48782E-02-4.45956E-01
 -1        84-1.72775E-02-1.71738E-02 5.68837E-02-4.46787E-04-4.42261E-03-5.33233E-01
 -1        85-6.90386E-01-6.88950E-01 2.29448E+00 2.11712E-05-1.51472E-02-8.38096E-03
 -1        86-5.24475E-01-5.26128E-01 1.73397E+00 9.73641E-04 1.01033E-02-1.27400E-01
 -1        87-7.16397E-01-7.11123E-01 2.37507E+00 1.24921E-03 2.74019E-02-3.85093E-02
 -1        88-2.59996E-01-2.59742E-01 8.61052E-01 1.80002E-05-1.57061E-02-2.99162E-01
 -1        89-2.79545E-01-2.76434E-01 9.21972E-01 7.37332E-05 1.12181E-03-3.55941E-01
 -1        90-1.28705E-12-2.16310E-13 2.28699E-13 6.77879E-14-1.19064E-02-3.56880E-01
 -1        91-8.66566E-03-8.67415E-03 2.87269E-02 5.39532E-04-9.98081E-03-4.70770E-01
 -1        92-2.29851E-02-2.30331E-02 7.65497E-02 6.34580E-04-2.79610E-04-4.54019E-01
 -1        93-2.38114E-01-2.42066E-01 7.80922E-01-2.01995E-05-1.29032E-02-9.58234E-02
 -1        94-2.50251E-01-2.48887E-01 8.12484E-01 1.64933E-04 1.47424E-02-1.15283E-01
 -1        95-3.34042E-12 5.80394E-13 3.68361E-13 4.62278E-13-1.07867E-02-3.23317E-01
 -1        96-8.07594E-03-7.94409E-03 2.60536E-02-6.05453E-04-3.19692E-03-3.86755E-01
 -1        97-3.74630E-01-3.72411E-01 1.23917E+00 2.99090E-05-1.17744E-02-6.48854E-03
 -1        98-2.43410E-01-2.45624E-01 7.94370E-01 1.18599E-03 7.42777E-03-9.20008E-02
 -1        99-3.90739E-01-3.83887E-01 1.28561E+00 1.69558E-03 2.12813E-02-2.99208E-02
 -1       100-1.22367E-01-1.21994E-01 4.00977E-01 2.31303E-05-1.13880E-02-2.16774E-01
 -1       101-1.33240E-01-1.29349E-01 4.31998E-01-2.25115E-05 7.40199E-04-2.57974E-01
 -1       102-1.17646E-12-5.96317E-14 1.14883E-13-2.22942E-13-9.25202E-03-2.77317E-01
 -1       103-4.07002E-03-4.08249E-03 1.33776E-02 6.93301E-04-7.23215E-03-3.41341E-01
 -1       104-1.24246E-02-1.24986E-02 4.13419E-02 8.96484E-04-2.16475E-04-3.52923E-01
 -1       105-5.74737E-02-6.25149E-02 1.77190E-01-1.77751E-05-6.95253E-03-5.22770E-02
 -1       106-6.49773E-02-6.29225E-02 1.91109E-01 6.00494E-04 7.89466E-03-6.31202E-02
 -1       107-1.95023E-12 6.21770E-13-6.39255E-14-2.07232E-12-5.81454E-03-1.74283E-01
 -1       108-2.08566E-03-1.91747E-03 5.91151E-03-5.32786E-04-1.74410E-03-2.08393E-01
 -1       109-1.45742E-01-1.43108E-01 4.74443E-01 3.53437E-05-7.61432E-03-4.38456E-03
 -1       110-6.02873E-02-6.28846E-02 1.81715E-01 1.57547E-03 3.62251E-03-5.05689E-02
 -1       111-1.55182E-01-1.46651E-01 4.96325E-01 2.10360E-03 1.41527E-02-1.98707E-02
 -1       112-3.27273E-02-3.24809E-02 1.00564E-01 3.09465E-05-6.14159E-03-1.17128E-01
 -1       113-3.83885E-02-3.36108E-02 1.12830E-01 3.10362E-04 5.16308E-04-1.39521E-01
 -1       114-1.45892E-12 3.25513E-13 1.36799E-13 1.30401E-13-5.98285E-03-1.79328E-01
 -1       115-1.08365E-03-1.09187E-03 3.35508E-03 9.27580E-04-3.90770E-03-1.84086E-01
 -1       116-4.77444E-03-4.86233E-03 1.58286E-02 1.05938E-03-1.46280E-04-2.28229E-01
 -1       117 4.31997E-03 3.03877E-03-3.55536E-02 3.80199E-05-9.53556E-04-1.07748E-02
 -1       118 1.76889E-03 7.08625E-03-3.90825E-02 1.31353E-03 8.23935E-04-1.31000E-02
 -1       119-1.98137E-12-1.31957E-12-8.07755E-14-2.06933E-12-7.30404E-04-2.18929E-02
 -1       120 1.01381E-04 1.44125E-04-1.18616E-03 1.13960E-03-3.59474E-04-2.85816E-02
 -1       121-2.25972E-02-2.09960E-02 6.37497E-02 3.48303E-05-2.78951E-03-4.86601E-04
 -1       122 3.60901E-03 4.86520E-03-3.95029E-02 2.14394E-03-6.34615E-04-9.22040E-03
 -1       123-2.69931E-02-1.90320E-02 6.91839E-02 1.89784E-03 4.24047E-03-5.26356E-03
 -1       124-2.79874E-03 9.02864E-04-5.46379E-03 6.76710E-05-7.47591E-04-1.83299E-02
 -1       125-4.94655E-03 3.01819E-03-5.61074E-03 1.33431E-03-6.77874E-05-2.29411E-02
 -1       126-1.18760E-12-2.42307E-13-1.09549E-13-1.39797E-12-2.16281E-03-6.48274E-02
 -1       127 3.01219E-05-9.33732E-05-1.82286E-04 2.02835E-03-6.11532E-04-2.24081E-02
 -1       128-7.00482E-04-7.53902E-04 2.12685E-03 1.04399E-03-1.62343E-05-8.36118E-02
 -1       129-6.22211E-05-5.40957E-05-1.05289E+01-3.34924E-08 2.56587E+00-3.91426E-01
 -1       130-6.41372E-05-5.63443E-05-1.01194E+01-3.75398E-09 3.55442E-02-1.59392E+00
 -1       131 3.68747E+00 3.04081E+00-1.15324E+01-7.05925E-03-3.17566E-02 2.64353E-01
 -1       132 3.40776E+00 3.06572E+00-1.07726E+01 2.73117E-01-4.72881E-01-1.00103E-01
 -1       133 6.62514E-05 6.05217E-05-5.03076E+00-4.17613E-06 1.25389E+00 4.69493E-01
 -1       134 6.80475E-05 6.27946E-05-4.97926E+00 7.58604E-08 1.24948E-02-6.90498E-01
 -1       135 1.49004E+00 1.52750E+00-5.73878E+00 4.30035E-04-2.98279E-02-1.98006E-01
 -1       136 1.28720E+00 1.47855E+00-5.15750E+00 2.36064E-01-2.49095E-01-4.84804E-01
 -1       137 6.20957E-05 6.03410E-05-1.03165E+01-2.30424E-06 1.30070E+00-1.11912E+00
 -1       138 3.00355E+00 3.32432E+00-1.12371E+01 1.41248E-02-3.65867E-03-7.39088E-01
 -1       139 3.54423E+00 3.06560E+00-1.11632E+01 4.26845E-02-1.79926E-01 3.15516E-02
 -1       140 2.83900E+00 3.29690E+00-1.07653E+01-3.92113E-01 5.82763E-01-1.75488E-01
 -1       141 2.57491E+00 2.76272E+00-9.14910E+00 2.04868E-03-3.02022E-02-1.93934E-01
 -1       142 2.48398E+00 2.65458E+00-8.81641E+00-4.91783E-02-5.01861E-02-2.13013E-01
 -1       143 1.35335E+00 1.38044E+00-4.58865E+00 2.44491E-04-2.58874E-02-4.98492E-01
 -1       144 1.24084E+00 1.28334E+00-4.25624E+00-5.35232E-02-1.02798E-02-5.90233E-01
 -1       145 3.24407E+00 2.95944E+00-9.96966E+00-2.42995E-03-2.09325E-02 2.96755E-02
 -1       146 2.53171E+00 2.70727E+00-8.99513E+00 2.78586E-03-6.27898E-02-1.57496E-01
 -1       147 3.12028E+00 2.91194E+00-9.71044E+00 7.91187E-02-4.47242E-02-6.03585E-02
 -1       148 2.27890E+00 2.23310E+00-7.46458E+00-4.50415E-04-2.79399E-02-2.10955E-01
 -1       149 2.19649E+00 2.16313E+00-7.21784E+00 1.46633E-02-5.01675E-02-2.57813E-01
 -1       150 1.12101E+00 1.11735E+00-3.73433E+00 8.30400E-06-2.47819E-02-4.66896E-01
 -1       151 1.04438E+00 1.04438E+00-3.48947E+00 1.35512E-02-1.67894E-02-5.59962E-01
 -1       152 2.43336E+00 2.49592E+00-8.29190E+00 6.33141E-04-2.20472E-02-2.18635E-02
 -1       153 2.23666E+00 2.19877E+00-7.33918E+00 1.74550E-03-5.27334E-02-2.07703E-01
 -1       154 2.36381E+00 2.40608E+00-8.01094E+00-2.06894E-02-3.92658E-02-6.07954E-02
 -1       155 1.73510E+00 1.74893E+00-5.81548E+00 1.27839E-04-2.68697E-02-1.97725E-01
 -1       156 1.67928E+00 1.68910E+00-5.62293E+00-3.52021E-03-4.66918E-02-2.39808E-01
 -1       157 8.73424E-01 8.74580E-01-2.91090E+00-4.41406E-06-2.36950E-02-4.51724E-01
 -1       158 8.15545E-01 8.15718E-01-2.71787E+00-3.48465E-03-1.43109E-02-5.38968E-01
 -1       159 2.00684E+00 1.98945E+00-6.63959E+00-1.79196E-04-2.09246E-02-1.12632E-02
 -1       160 1.70736E+00 1.71893E+00-5.71875E+00 1.40158E-04-5.10572E-02-1.89237E-01
 -1       161 1.93895E+00 1.92451E+00-6.42030E+00 5.52554E-03-4.16938E-02-5.74282E-02
 -1       162 1.28829E+00 1.28695E+00-4.27908E+00-1.95497E-05-2.46533E-02-1.84362E-01
 -1       163 1.24692E+00 1.24363E+00-4.13887E+00 1.09451E-03-4.29734E-02-2.24105E-01
 -1       164 6.44488E-01 6.44068E-01-2.14477E+00-9.43118E-06-2.17704E-02-4.14636E-01
 -1       165 6.02897E-01 6.00932E-01-2.00447E+00 8.62615E-04-1.33299E-02-4.95442E-01
 -1       166 1.51125E+00 1.51468E+00-5.04518E+00 3.01119E-05-1.97545E-02-1.08352E-02
 -1       167 1.26716E+00 1.26532E+00-4.20766E+00 6.77804E-04-4.69060E-02-1.77886E-01
 -1       168 1.46308E+00 1.46311E+00-4.87865E+00-6.68895E-04-3.90349E-02-5.22048E-02
 -1       169 8.68739E-01 8.72123E-01-2.89010E+00 1.98824E-05-2.17122E-02-1.61444E-01
 -1       170 8.42386E-01 8.42160E-01-2.79696E+00-1.36988E-04-3.78980E-02-1.96320E-01
 -1       171 4.36801E-01 4.36663E-01-1.45170E+00-1.46608E-05-1.91679E-02-3.65077E-01
 -1       172 4.09469E-01 4.07205E-01-1.35840E+00-2.71914E-04-1.17500E-02-4.36084E-01
 -1       173 1.07740E+00 1.07501E+00-3.58276E+00-2.83985E-05-1.77695E-02-1.00532E-02
 -1       174 8.55104E-01 8.57087E-01-2.84165E+00 7.15724E-04-4.13038E-02-1.55521E-01
 -1       175 1.04369E+00 1.03841E+00-3.46615E+00 1.30685E-03-3.50774E-02-4.76170E-02
 -1       176 5.14762E-01 5.17871E-01-1.70501E+00 1.49060E-05-1.77900E-02-1.32562E-01
 -1       177 5.00907E-01 4.99549E-01-1.65239E+00 2.45763E-04-3.11064E-02-1.61191E-01
 -1       178 2.59996E-01 2.59742E-01-8.61052E-01-1.80002E-05-1.57061E-02-2.99162E-01
 -1       179 2.45023E-01 2.42015E-01-8.08198E-01 8.85881E-06-9.63458E-03-3.57410E-01
 -1       180 6.90386E-01 6.88950E-01-2.29448E+00-2.11712E-05-1.51472E-02-8.38096E-03
 -1       181 5.07178E-01 5.08627E-01-1.67624E+00 9.70886E-04-3.39026E-02-1.27759E-01
 -1       182 6.70491E-01 6.64853E-01-2.22171E+00 1.16855E-03-3.00354E-02-4.04255E-02
 -1       183 2.38114E-01 2.42066E-01-7.80922E-01 2.01995E-05-1.29032E-02-9.58234E-02
 -1       184 2.34183E-01 2.32725E-01-7.60021E-01 1.54284E-04-2.24761E-02-1.16525E-01
 -1       185 1.22367E-01 1.21994E-01-4.00977E-01-2.31303E-05-1.13880E-02-2.16774E-01
 -1       186 1.17130E-01 1.13378E-01-3.79897E-01-1.01785E-04-6.88746E-03-2.59045E-01
 -1       187 3.74630E-01 3.72411E-01-1.23917E+00-2.99090E-05-1.17744E-02-6.48854E-03
 -1       188 2.35312E-01 2.37271E-01-7.67283E-01 1.19014E-03-2.46769E-02-9.22552E-02
 -1       189 3.65967E-01 3.58641E-01-1.20260E+00 1.58609E-03-2.33275E-02-3.14091E-02
 -1       190 5.74737E-02 6.25149E-02-1.77190E-01 1.77751E-05-6.95253E-03-5.22770E-02
 -1       191 6.09189E-02 5.87223E-02-1.78769E-01 5.61720E-04-1.21286E-02-6.37882E-02
 -1       192 3.27273E-02 3.24809E-02-1.00564E-01-3.09465E-05-6.14159E-03-1.17128E-01
 -1       193 3.42734E-02 2.96585E-02-1.00943E-01 2.05813E-04-3.89544E-03-1.40074E-01
 -1       194 1.45742E-01 1.43108E-01-4.74443E-01-3.53437E-05-7.61432E-03-4.38456E-03
 -1       195 5.81765E-02 6.04604E-02-1.74583E-01 1.55825E-03-1.29505E-02-5.07161E-02
 -1       196 1.45732E-01 1.36612E-01-4.64277E-01 1.96777E-03-1.55116E-02-2.08604E-02
 -1       197-4.31997E-03-3.03877E-03 3.55536E-02-3.80199E-05-9.53556E-04-1.07748E-02
 -1       198-1.29948E-03-6.98388E-03 3.65589E-02 1.22871E-03-1.70085E-03-1.31843E-02
 -1       199 2.79874E-03-9.02864E-04 5.46379E-03-6.76710E-05-7.47591E-04-1.83299E-02
 -1       200 5.28257E-03-2.78384E-03 2.98446E-03 1.19407E-03-5.47980E-04-2.29498E-02
 -1       201 2.25972E-02 2.09960E-02-6.37497E-02-3.48303E-05-2.78951E-03-4.86601E-04
 -1       202-3.41544E-03-5.20647E-03 3.92162E-02 2.05959E-03-8.96425E-04-9.23642E-03
 -1       203 2.57820E-02 1.72713E-02-6.47166E-02 1.77529E-03-4.60153E-03-5.55855E-03
 -1       204 6.22211E-05 5.40957E-05 1.05289E+01 3.34924E-08 2.56587E+00-3.91426E-01
 -1       205-3.40776E+00-3.06572E+00 1.07726E+01-2.73117E-01-4.72881E-01-1.00103E-01
 -1       206-1.87979E-06-2.13978E-06-3.37611E-01-1.12521E-07-5.31772E-02 1.06539E+00
 -1       207 1.01449E-01 1.23023E-01-3.84752E-01-2.11592E-01 8.81949E-03-9.51862E-01
 -1       208-6.20957E-05-6.03410E-05 1.03165E+01 2.30424E-06 1.30070E+00-1.11912E+00
 -1       209-2.83900E+00-3.29690E+00 1.07653E+01 3.92113E-01 5.82763E-01-1.75488E-01
 -1       210-3.54423E+00-3.06560E+00 1.11632E+01-4.26845E-02-1.79926E-01 3.15516E-02
 -1       211-6.62514E-05-6.05217E-05 5.03076E+00 4.17613E-06 1.25389E+00 4.69493E-01
 -1       212-1.28720E+00-1.47855E+00 5.15750E+00-2.36064E-01-2.49095E-01-4.84804E-01
 -1       213 2.09499E-06 2.27024E-06-1.66121E-01 2.27382E-06-2.30368E-02 3.74514E-01
 -1       214 1.10908E-01 1.00206E-01-3.74899E-01 4.23374E-01-2.46579E-02-1.09664E-01
 -1       215 5.09613E-02 4.97116E-02-1.91461E-01 1.28897E-02-6.60600E-03-8.94053E-01
 -1       216-2.48398E+00-2.65458E+00 8.81641E+00 4.91783E-02-5.01861E-02-2.13013E-01
 -1       217 9.21715E-02 8.59056E-02-3.05238E-01 6.14066E-02-6.47015E-03-9.05271E-01
 -1       218-3.12028E+00-2.91194E+00 9.71044E+00-7.91187E-02-4.47242E-02-6.03585E-02
 -1       219-2.53171E+00-2.70727E+00 8.99513E+00-2.78586E-03-6.27898E-02-1.57496E-01
 -1       220-1.24084E+00-1.28334E+00 4.25624E+00 5.35232E-02-1.02798E-02-5.90233E-01
 -1       221 9.87345E-02 1.08231E-01-3.32614E-01-7.28345E-02 9.90050E-04-6.27424E-01
 -1       222 4.60551E-02 4.51513E-02-1.53089E-01 7.32829E-03-1.66310E-02-7.75942E-01
 -1       223-2.19649E+00-2.16313E+00 7.21784E+00-1.46633E-02-5.01675E-02-2.57813E-01
 -1       224 7.45021E-02 7.60300E-02-2.49038E-01-1.35006E-02-7.03800E-03-8.37462E-01
 -1       225-2.36381E+00-2.40608E+00 8.01094E+00 2.06894E-02-3.92658E-02-6.07954E-02
 -1       226-2.23666E+00-2.19877E+00 7.33918E+00-1.74550E-03-5.27334E-02-2.07703E-01
 -1       227-1.04438E+00-1.04438E+00 3.48947E+00-1.35512E-02-1.67894E-02-5.59962E-01
 -1       228 8.32705E-02 8.11831E-02-2.76639E-01 1.89776E-02-7.29423E-04-6.60837E-01
 -1       229 3.72775E-02 3.73999E-02-1.24587E-01 2.48902E-04-1.55769E-02-7.42805E-01
 -1       230-1.67928E+00-1.68910E+00 5.62293E+00 3.52021E-03-4.66918E-02-2.39808E-01
 -1       231 5.83488E-02 5.78875E-02-1.94020E-01 3.83181E-03-6.59662E-03-8.05383E-01
 -1       232-1.93895E+00-1.92451E+00 6.42030E+00-5.52554E-03-4.16938E-02-5.74282E-02
 -1       233-1.70736E+00-1.71893E+00 5.71875E+00-1.40158E-04-5.10572E-02-1.89237E-01
 -1       234-8.15545E-01-8.15718E-01 2.71787E+00 3.48465E-03-1.43109E-02-5.38968E-01
 -1       235 6.63730E-02 6.69535E-02-2.21514E-01-5.37117E-03-3.75768E-04-6.27188E-01
 -1       236 2.91783E-02 2.91397E-02-9.71150E-02-1.32306E-04-1.50707E-02-7.10226E-01
 -1       237-1.24692E+00-1.24363E+00 4.13887E+00-1.09451E-03-4.29734E-02-2.24105E-01
 -1       238 4.29361E-02 4.29807E-02-1.42761E-01-5.85976E-04-6.15078E-03-7.38950E-01
 -1       239-1.46308E+00-1.46311E+00 4.87865E+00 6.68895E-04-3.90349E-02-5.22048E-02
 -1       240-1.26716E+00-1.26532E+00 4.20766E+00-6.77804E-04-4.69060E-02-1.77886E-01
 -1       241-6.02897E-01-6.00932E-01 2.00447E+00-8.62615E-04-1.33299E-02-4.95442E-01
 -1       242 5.05337E-02 5.04192E-02-1.68320E-01 9.02565E-04-3.61490E-04-5.92115E-01
 -1       243 2.14878E-02 2.15018E-02-7.15551E-02-2.82687E-04-1.38333E-02-6.52540E-01
 -1       244-8.42386E-01-8.42160E-01 2.79696E+00 1.36988E-04-3.78980E-02-1.96320E-01
 -1       245 2.90963E-02 2.89834E-02-9.64211E-02 5.95949E-04-5.38618E-03-6.50795E-01
 -1       246-1.04369E+00-1.03841E+00 3.46615E+00-1.30685E-03-3.50774E-02-4.76170E-02
 -1       247-8.55104E-01-8.57087E-01 2.84165E+00-7.15724E-04-4.13038E-02-1.55521E-01
 -1       248-4.09469E-01-4.07205E-01 1.35840E+00 2.71914E-04-1.17500E-02-4.36084E-01
 -1       249 3.58652E-02 3.59448E-02-1.19530E-01-8.51209E-04-3.35399E-04-5.32618E-01
 -1       250 1.45682E-02 1.45728E-02-4.84325E-02-4.39440E-04-1.21799E-02-5.74533E-01
 -1       251-5.00907E-01-4.99549E-01 1.65239E+00-2.45763E-04-3.11064E-02-1.61191E-01
 -1       252 1.72775E-02 1.71738E-02-5.68837E-02 4.46787E-04-4.42261E-03-5.33233E-01
 -1       253-6.70491E-01-6.64853E-01 2.22171E+00-1.16855E-03-3.00354E-02-4.04255E-02
 -1       254-5.07178E-01-5.08627E-01 1.67624E+00-9.70886E-04-3.39026E-02-1.27759E-01
 -1       255-2.45023E-01-2.42015E-01 8.08198E-01-8.85881E-06-9.63458E-03-3.57410E-01
 -1       256 2.29851E-02 2.30331E-02-7.65497E-02-6.34580E-04-2.79610E-04-4.54019E-01
 -1       257 8.66566E-03 8.67415E-03-2.87269E-02-5.39532E-04-9.98081E-03-4.70770E-01
 -1       258-2.34183E-01-2.32725E-01 7.60021E-01-1.54284E-04-2.24761E-02-1.16525E-01
 -1       259 8.07594E-03 7.94409E-03-2.60536E-02 6.05453E-04-3.19692E-03-3.86755E-01
 -1       260-3.65967E-01-3.58641E-01 1.20260E+00-1.58609E-03-2.33275E-02-3.14091E-02
 -1       261-2.35312E-01-2.37271E-01 7.67283E-01-1.19014E-03-2.46769E-02-9.22552E-02
 -1       262-1.17130E-01-1.13378E-01 3.79897E-01 1.01785E-04-6.88746E-03-2.59045E-01
 -1       263 1.24246E-02 1.24986E-02-4.13419E-02-8.96484E-04-2.16475E-04-3.52923E-01
 -1       264 4.07002E-03 4.08249E-03-1.33776E-02-6.93301E-04-7.23215E-03-3.41341E-01
 -1       265-6.09189E-02-5.87223E-02 1.78769E-01-5.61720E-04-1.21286E-02-6.37882E-02
 -1       266 2.08566E-03 1.91747E-03-5.91151E-03 5.32786E-04-1.74410E-03-2.08393E-01
 -1       267-1.45732E-01-1.36612E-01 4.64277E-01-1.96777E-03-1.55116E-02-2.08604E-02
 -1       268-5.81765E-02-6.04604E-02 1.74583E-01-1.55825E-03-1.29505E-02-5.07161E-02
 -1       269-3.42734E-02-2.96585E-02 1.00943E-01-2.05813E-04-3.89544E-03-1.40074E-01
 -1       270 4.77444E-03 4.86233E-03-1.58286E-02-1.05938E-03-1.46280E-04-2.28229E-01
 -1       271 1.08365E-03 1.09187E-03-3.35508E-03-9.27580E-04-3.90770E-03-1.84086E-01
 -1       272 1.29948E-03 6.98388E-03-3.65589E-02-1.22871E-03-1.70085E-03-1.31843E-02
 -1       273-1.01381E-04-1.44125E-04 1.18616E-03-1.13960E-03-3.59474E-04-2.85816E-02
 -1       274-2.57820E-02-1.72713E-02 6.47166E-02-1.77529E-03-4.60153E-03-5.55855E-03
 -1       275 3.41544E-03 5.20647E-03-3.92162E-02-2.05959E-03-8.96425E-04-9.23642E-03
 -1       276-5.28257E-03 2.78384E-03-2.98446E-03-1.19407E-03-5.47980E-04-2.29498E-02
 -1       277 7.00482E-04 7.53902E-04-2.12685E-03-1.04399E-03-1.62343E-05-8.36118E-02
 -1       278-3.01219E-05 9.33732E-05 1.82286E-04-2.02835E-03-6.11532E-04-2.24081E-02
 -1       279-6.59734E-05-5.83726E-05-1.12556E+01 3.58043E-08-2.59773E+00-5.63697E-01
 -1       280 3.62014E+00 3.30019E+00-1.15162E+01-2.91970E-01 4.67248E-01-6.87383E-02
 -1       281 7.04298E-05 6.48046E-05-5.73111E+00 4.33936E-06-1.33144E+00 3.83653E-01
 -1       282 1.49485E+00 1.71859E+00-5.91469E+00-2.39441E-01 2.51757E-01-4.73865E-01
 -1       283 6.62769E-05 6.49010E-05-1.06756E+01 2.58834E-06-1.27224E+00-1.20537E+00
 -1       284 3.06556E+00 3.49389E+00-1.15084E+01 4.19179E-01-5.95784E-01-2.14808E-01
 -1       285 3.65089E+00 3.15842E+00-1.15326E+01-5.85486E-02 1.47942E-01 4.82613E-02
 -1       286 2.66684E+00 2.82642E+00-9.42499E+00 5.25730E-02 3.60688E-02-2.10135E-01
 -1       287 1.42445E+00 1.45532E+00-4.86659E+00 5.34564E-02-2.17916E-04-5.87354E-01
 -1       288 3.32175E+00 3.12686E+00-1.03807E+01-8.45801E-02 4.07919E-02-5.75055E-02
 -1       289 2.62308E+00 2.79620E+00-9.29949E+00 7.83255E-04 2.35025E-02-1.57160E-01
 -1       290 2.34588E+00 2.31468E+00-7.71607E+00-1.56755E-02 3.30575E-02-2.55036E-01
 -1       291 1.19359E+00 1.19611E+00-3.98750E+00-1.36980E-02 2.95239E-03-5.57687E-01
 -1       292 2.52980E+00 2.56935E+00-8.56392E+00 2.21175E-02 3.52922E-02-5.83079E-02
 -1       293 2.31141E+00 2.27344E+00-7.58863E+00-2.65461E-03 1.54458E-02-2.07044E-01
 -1       294 1.79585E+00 1.80504E+00-6.01107E+00 3.76320E-03 3.07768E-02-2.37223E-01
 -1       295 9.32186E-01 9.31586E-01-3.10594E+00 3.48305E-03 1.70182E-03-5.36759E-01
 -1       296 2.07183E+00 2.05832E+00-6.86349E+00-5.90696E-03 3.79505E-02-5.47710E-02
 -1       297 1.76565E+00 1.77723E+00-5.91305E+00 9.23027E-05 1.51681E-02-1.88702E-01
 -1       298 1.33278E+00 1.32970E+00-4.42457E+00-1.17007E-03 2.80990E-02-2.21734E-01
 -1       299 6.88764E-01 6.86916E-01-2.29001E+00-9.09815E-04 1.47689E-03-4.93413E-01
 -1       300 1.56408E+00 1.56410E+00-5.21541E+00 7.15068E-04 3.56347E-02-4.97137E-02
 -1       301 1.31012E+00 1.30841E+00-4.35094E+00-7.36937E-04 1.39152E-02-1.77392E-01
 -1       302 9.00520E-01 9.00308E-01-2.99003E+00 1.46444E-04 2.48684E-02-1.94225E-01
 -1       303 4.67634E-01 4.65233E-01-1.55125E+00 2.24710E-04 1.38753E-03-4.34297E-01
 -1       304 1.11538E+00 1.11044E+00-3.70541E+00-1.39706E-03 3.19748E-02-4.53800E-02
 -1       305 8.84211E-01 8.86350E-01-2.93872E+00-6.99155E-04 1.22656E-02-1.55082E-01
 -1       306 5.35393E-01 5.34123E-01-1.76645E+00-2.62728E-04 2.04082E-02-1.59472E-01
 -1       307 2.79545E-01 2.76434E-01-9.21972E-01-7.37332E-05 1.12181E-03-3.55941E-01
 -1       308 7.16397E-01 7.11123E-01-2.37507E+00-1.24921E-03 2.74019E-02-3.85093E-02
 -1       309 5.24475E-01 5.26128E-01-1.73397E+00-9.73641E-04 1.01033E-02-1.27400E-01
 -1       310 2.50251E-01 2.48887E-01-8.12484E-01-1.64933E-04 1.47424E-02-1.15283E-01
 -1       311 1.33240E-01 1.29349E-01-4.31998E-01 2.25115E-05 7.40199E-04-2.57974E-01
 -1       312 3.90739E-01 3.83887E-01-1.28561E+00-1.69558E-03 2.12813E-02-2.99208E-02
 -1       313 2.43410E-01 2.45624E-01-7.94370E-01-1.18599E-03 7.42777E-03-9.20008E-02
 -1       314 6.49773E-02 6.29225E-02-1.91109E-01-6.00494E-04 7.89466E-03-6.31202E-02
 -1       315 3.83885E-02 3.36108E-02-1.12830E-01-3.10362E-04 5.16308E-04-1.39521E-01
 -1       316 1.55182E-01 1.46651E-01-4.96325E-01-2.10360E-03 1.41527E-02-1.98707E-02
 -1       317 6.02873E-02 6.28846E-02-1.81715E-01-1.57547E-03 3.62251E-03-5.05689E-02
 -1       318-1.76889E-03-7.08625E-03 3.90825E-02-1.31353E-03 8.23935E-04-1.31000E-02
 -1       319 4.94655E-03-3.01819E-03 5.61074E-03-1.33431E-03-6.77874E-05-2.29411E-02
 -1       320 2.69931E-02 1.90320E-02-6.91839E-02-1.89784E-03 4.24047E-03-5.26356E-03
 -1       321-3.60901E-03-4.86520E-03 3.95029E-02-2.14394E-03-6.34615E-04-9.22040E-03
 -3
    1PSTEP                         8           1           1          
    1PGM                1.000000E+00                                  
    1PGK                2.768264E+07                                  
    1PHID                         -1                                  
    1PSUBC                         0                                  
    1PMODE                         2                                  
  100CL  102 837.3825237         321                     2    2MODAL      1
 -4  ERROR       1    1
 -5  STR(%)      1    1    0    0
 -1         1 1.97135E+01
 -1         2 2.07210E+01
 -1         3 2.07210E+01
 -1         4 1.97135E+01
 -1         5 2.07210E+01
 -1         6 2.07210E+01
 -1         7 2.07210E+01
 -1         8 2.07210E+01
 -1         9 2.02173E+01
 -1        10 2.07210E+01
 -1        11 2.02173E+01
 -1        12 1.97135E+01
 -1        13 2.02173E+01
 -1        14 2.07210E+01
 -1        15 2.07210E+01
 -1        16 2.02173E+01
 -1        17 2.07210E+01
 -1        18 2.07210E+01
 -1        19 2.07210E+01
 -1        20 2.07210E+01
 -1        21 1.88161E+01
 -1        22 1.83454E+01
 -1        23 1.88161E+01
 -1        24 1.88161E+01
 -1        25 1.97686E+01
 -1        26 1.85808E+01
 -1        27 1.90295E+01
 -1        28 1.88161E+01
 -1        29 1.85808E+01
 -1        30 1.97686E+01
 -1        31 1.88161E+01
 -1        32 1.97686E+01
 -1        33 1.88161E+01
 -1        34 1.83113E+01
 -1        35 1.88161E+01
 -1        36 1.88161E+01
 -1        37 1.88161E+01
 -1        38 1.85637E+01
 -1        39 1.83284E+01
 -1        40 1.88161E+01
 -1        41 1.85637E+01
 -1        42 1.88161E+01
 -1        43 1.88161E+01
 -1        44 1.88161E+01
 -1        45 1.84796E+01
 -1        46 1.81001E+01
 -1        47 1.84796E+01
 -1        48 1.84796E+01
 -1        49 1.86479E+01
 -1        50 1.82898E+01
 -1        51 1.82057E+01
 -1        52 1.84796E+01
 -1        53 1.82898E+01
 -1        54 1.86479E+01
 -1        55 1.84796E+01
 -1        56 1.86479E+01
 -1        57 1.82172E+01
 -1        58 1.79456E+01
 -1        59 1.82172E+01
 -1        60 1.82172E+01
 -1        61 1.83484E+01
 -1        62 1.80814E+01
 -1        63 1.80229E+01
 -1        64 1.82172E+01
 -1        65 1.80814E+01
 -1        66 1.83484E+01
 -1        67 1.82172E+01
 -1        68 1.83484E+01
 -1        69 1.78175E+01
 -1        70 1.76763E+01
 -1        71 1.78175E+01
 -1        72 1.78175E+01
 -1        73 1.80173E+01
 -1        74 1.77469E+01
 -1        75 1.78110E+01
 -1        76 1.78175E+01
 -1        77 1.77469E+01
 -1        78 1.80173E+01
 -1        79 1.78175E+01
 -1        80 1.80173E+01
 -1        81 1.72919E+01
 -1        82 1.72633E+01
 -1        83 1.72919E+01
 -1        84 1.72919E+01
 -1        85 1.75547E+01
 -1        86 1.72776E+01
 -1        87 1.74698E+01
 -1        88 1.72919E+01
 -1        89 1.72776E+01
 -1        90 1.75547E+01
 -1        91 1.72919E+01
 -1        92 1.75547E+01
 -1        93 1.66089E+01
 -1        94 1.66089E+01
 -1        95 1.66089E+01
 -1        96 1.66089E+01
 -1        97 1.69504E+01
 -1        98 1.66089E+01
 -1        99 1.69361E+01
 -1       100 1.66089E+01
 -1       101 1.66089E+01
 -1       102 1.69504E+01
 -1       103 1.66089E+01
 -1       104 1.69504E+01
 -1       105 2.29820E+01
 -1       106 2.28252E+01
 -1       107 2.29820E+01
 -1       108 2.29820E+01
 -1       109 1.97954E+01
 -1       110 2.29036E+01
 -1       111 1.97171E+01
 -1       112 2.29820E+01
 -1       113 2.29036E+01
 -1       114 1.97954E+01
 -1       115 2.29820E+01
 -1       116 1.97954E+01
 -1       117 2.29820E+01
 -1       118 2.28252E+01
 -1       119 2.29820E+01
 -1       120 2.29820E+01
 -1       121 2.29820E+01
 -1       122 2.29036E+01
 -1       123 2.28252E+01
 -1       124 2.29820E+01
 -1       125 2.29036E+01
 -1       126 2.29820E+01
 -1       127 2.29820E+01
 -1       128 2.29820E+01
 -1       129 2.07210E+01
 -1       130 2.07210E+01
 -1       131 2.07210E+01
 -1       132 2.07210E+01
 -1       133 2.07210E+01
 -1       134 2.07210E+01
 -1       135 2.07210E+01
 -1       136 2.07210E+01
 -1       137 2.07210E+01
 -1       138 2.07210E+01
 -1       139 2.07210E+01
 -1       140 2.07210E+01
 -1       141 1.88161E+01
 -1       142 1.88161E+01
 -1       143 1.88161E+01
 -1       144 1.88161E+01
 -1       145 1.97686E+01
 -1       146 1.88161E+01
 -1       147 1.97686E+01
 -1       148 1.88161E+01
 -1       149 1.88161E+01
 -1       150 1.88161E+01
 -1       151 1.88161E+01
 -1       152 1.88161E+01
 -1       153 1.88161E+01
 -1       154 1.88161E+01
 -1       155 1.84796E+01
 -1       156 1.84796E+01
 -1       157 1.84796E+01
 -1       158 1.84796E+01
 -1       159 1.86479E+01
 -1       160 1.84796E+01
 -1       161 1.86479E+01
 -1       162 1.82172E+01
 -1       163 1.82172E+01
 -1       164 1.82172E+01
 -1       165 1.82172E+01
 -1       166 1.83484E+01
 -1       167 1.82172E+01
 -1       168 1.83484E+01
 -1       169 1.78175E+01
 -1       170 1.78175E+01
 -1       171 1.78175E+01
 -1       172 1.78175E+01
 -1       173 1.80173E+01
 -1       174 1.78175E+01
 -1       175 1.80173E+01
 -1       176 1.72919E+01
 -1       177 1.72919E+01
 -1       178 1.72919E+01
 -1       179 1.72919E+01
 -1       180 1.75547E+01
 -1       181 1.72919E+01
 -1       182 1.75547E+01
 -1       183 1.66089E+01
 -1       184 1.64745E+01
 -1       185 1.66089E+01
 -1       186 1.65417E+01
 -1       187 1.69504E+01
 -1       188 1.65417E+01
 -1       189 1.68832E+01
 -1       190 2.29820E+01
 -1       191 2.29820E+01
 -1       192 2.29820E+01
 -1       193 2.29820E+01
 -1       194 1.97954E+01
 -1       195 2.29820E+01
 -1       196 1.97282E+01
 -1       197 2.29820E+01
 -1       198 2.29820E+01
 -1       199 2.29820E+01
 -1       200 2.29820E+01
 -1       201 2.29820E+01
 -1       202 2.29820E+01
 -1       203 2.29820E+01
 -1       204 2.07210E+01
 -1       205 2.07210E+01
 -1       206 2.07210E+01
 -1       207 2.07210E+01
 -1       208 2.07210E+01
 -1       209 2.07210E+01
 -1       210 2.07210E+01
 -1       211 2.07210E+01
 -1       212 2.07210E+01
 -1       213 2.07210E+01
 -1       214 2.07210E+01
 -1       215 2.07210E+01
 -1       216 1.88161E+01
 -1       217 1.88161E+01
 -1       218 1.97686E+01
 -1       219 1.88161E+01
 -1       220 1.88161E+01
 -1       221 1.97686E+01
 -1       222 1.88161E+01
 -1       223 1.88161E+01
 -1       224 1.88161E+01
 -1       225 1.88161E+01
 -1       226 1.88161E+01
 -1       227 1.88161E+01
 -1       228 1.88161E+01
 -1       229 1.88161E+01
 -1       230 1.84796E+01
 -1       231 1.84796E+01
 -1       232 1.86479E+01
 -1       233 1.84796E+01
 -1       234 1.84796E+01
 -1       235 1.86479E+01
 -1       236 1.84796E+01
 -1       237 1.82172E+01
 -1       238 1.82172E+01
 -1       239 1.83484E+01
 -1       240 1.82172E+01
 -1       241 1.82172E+01
 -1       242 1.83484E+01
 -1       243 1.82172E+01
 -1       244 1.78175E+01
 -1       245 1.78175E+01
 -1       246 1.80173E+01
 -1       247 1.78175E+01
 -1       248 1.78175E+01
 -1       249 1.80173E+01
 -1       250 1.78175E+01
 -1       251 1.72919E+01
 -1       252 1.72919E+01
 -1       253 1.75547E+01
 -1       254 1.72919E+01
 -1       255 1.72919E+01
 -1       256 1.75547E+01
 -1       257 1.72919E+01
 -1       258 1.64745E+01
 -1       259 1.66089E+01
 -1       260 1.68832E+01
 -1       261 1.65417E+01
 -1       262 1.65417E+01
 -1       263 1.69504E+01
 -1       264 1.66089E+01
 -1       265 2.29820E+01
 -1       266 2.29820E+01
 -1       267 1.97282E+01
 -1       268 2.29820E+01
 -1       269 2.29820E+01
 -1       270 1.97954E+01
 -1       271 2.29820E+01
 -1       272 2.29820E+01
 -1       273 2.29820E+01
 -1       274 2.29820E+01
 -1       275 2.29820E+01
 -1       276 2.29820E+01
 -1       277 2.29820E+01
 -1       278 2.29820E+01
 -1       279 1.97135E+01
 -1       280 1.97135E+01
 -1       281 2.02173E+01
 -1       282 2.02173E+01
 -1       283 2.02173E+01
 -1       284 1.97135E+01
 -1       285 2.02173E+01
 -1       286 1.83454E+01
 -1       287 1.85808E+01
 -1       288 1.90295E+01
 -1       289 1.85808E+01
 -1       290 1.83113E+01
 -1       291 1.85637E+01
 -1       292 1.83284E+01
 -1       293 1.85637E+01
 -1       294 1.81001E+01
 -1       295 1.82898E+01
 -1       296 1.82057E+01
 -1       297 1.82898E+01
 -1       298 1.79456E+01
 -1       299 1.80814E+01
 -1       300 1.80229E+01
 -1       301 1.80814E+01
 -1       302 1.76763E+01
 -1       303 1.77469E+01
 -1       304 1.78110E+01
 -1       305 1.77469E+01
 -1       306 1.72633E+01
 -1       307 1.72776E+01
 -1       308 1.74698E+01
 -1       309 1.72776E+01
 -1       310 1.66089E+01
 -1       311 1.66089E+01
 -1       312 1.69361E+01
 -1       313 1.66089E+01
 -1       314 2.28252E+01
 -1       315 2.29036E+01
 -1       316 1.97171E+01
 -1       317 2.29036E+01
 -1       318 2.28252E+01
 -1       319 2.29036E+01
 -1       320 2.28252E+01
 -1       321 2.29036E+01
 -3
    1PSTEP                         9           1           1          
    1PGM                1.000000E+00                                  
    1PGK                9.976274E+08                                  
    1PHID                         -1                                  
    1PSUBC                         0                                  
    1PMODE                         3                                  
  100CL  103 5026.947094         321                     2    3MODAL      1
 -4  DISP        4    1
 -5  D1          1    2    1    0
 -5  D2          1    2    2    0
 -5  D3          1    2    3    0
 -5  ALL         1    2    0    0    1ALL
 -1         1 0.00000E+00 0.00000E+00 0.00000E+00
 -1         2 0.00000E+00 0.00000E+00 0.00000E+00
 -1         3-1.33271E-01-6.78775E-01 9.72790E-02
 -1         4-1.81113E-01-7.09442E-01 6.17703E-01
 -1         5 0.00000E+00 0.00000E+00 0.00000E+00
 -1         6 0.00000E+00 0.00000E+00 0.00000E+00
 -1         7-1.28922E-01-7.04696E-01 5.13478E-16
 -1         8-1.24180E-01-7.28465E-01 5.31732E-01
 -1         9 0.00000E+00 0.00000E+00 0.00000E+00
 -1        10-4.73841E-02-1.81038E-01 5.11963E-02
 -1        11-1.58931E-01-6.83301E-01 3.42509E-01
 -1        12-1.20389E-01-2.38065E-01 3.37658E-01
 -1        13 0.00000E+00 0.00000E+00 0.00000E+00
 -1        14 0.00000E+00 0.00000E+00 0.00000E+00
 -1        15-1.29037E-01-7.01731E-01 4.60602E-02
 -1        16-1.50229E-01-7.29088E-01 5.73960E-01
 -1        17 0.00000E+00 0.00000E+00 0.00000E+00
 -1        18-3.93591E-02-2.15139E-01 2.60425E-16
 -1        19-1.28380E-01-7.05323E-01 2.51767E-01
 -1        20-3.31204E-02-2.59004E-01 2.79841E-01
 -1        21-3.96194E-01-2.15854E+00 1.35352E-01
 -1        22-4.02998E-01-2.16307E+00 8.69335E-01
 -1        23-3.95578E-01-2.16225E+00 2.04697E-15
 -1        24-3.94900E-01-2.16562E+00 7.39843E-01
 -1        25-2.55765E-01-1.36475E+00 1.23226E-01
 -1        26-3.99796E-01-2.16093E+00 4.90763E-01
 -1        27-2.84159E-01-1.38814E+00 7.90120E-01
 -1        28-3.95939E-01-2.16055E+00 6.59035E-02
 -1        29-3.99053E-01-2.16441E+00 8.05073E-01
 -1        30-2.52577E-01-1.38060E+00 1.21431E-15
 -1        31-3.95267E-01-2.16422E+00 3.60232E-01
 -1        32-2.49677E-01-1.39802E+00 6.73557E-01
 -1        33-6.75278E-01-3.72495E+00 1.17784E-01
 -1        34-6.43931E-01-3.70188E+00 7.56765E-01
 -1        35-6.78389E-01-3.70811E+00 3.59782E-15
 -1        36-6.81470E-01-3.69110E+00 6.43813E-01
 -1        37-5.40726E-01-2.96941E+00 1.32565E-01
 -1        38-6.58921E-01-3.71758E+00 4.28093E-01
 -1        39-5.27762E-01-2.96033E+00 8.51586E-01
 -1        40-6.77596E-01-3.71240E+00 5.74514E-02
 -1        41-6.63462E-01-3.69229E+00 7.00630E-01
 -1        42-5.41992E-01-2.96256E+00 3.71925E-15
 -1        43-6.79173E-01-3.70377E+00 3.14033E-01
 -1        44-5.43247E-01-2.95564E+00 7.24607E-01
 -1        45-8.67441E-01-4.80474E+00 5.61520E-02
 -1        46-8.09234E-01-4.76170E+00 3.60215E-01
 -1        47-8.73257E-01-4.77327E+00 4.35763E-15
 -1        48-8.79015E-01-4.74148E+00 3.06930E-01
 -1        49-7.87615E-01-4.35473E+00 9.12418E-02
 -1        50-8.37001E-01-4.79146E+00 2.02644E-01
 -1        51-7.41678E-01-4.32123E+00 5.86041E-01
 -1        52-8.71867E-01-4.78091E+00 2.72103E-02
 -1        53-8.45659E-01-4.74339E+00 3.33755E-01
 -1        54-7.92126E-01-4.32980E+00 4.28130E-15
 -1        55-8.74655E-01-4.76567E+00 1.48733E-01
 -1        56-7.96687E-01-4.30515E+00 4.98732E-01
 -1        57-8.99922E-01-4.99573E+00-3.20507E-02
 -1        58-8.29441E-01-4.94352E+00-2.07924E-01
 -1        59-9.06967E-01-4.95753E+00 3.83027E-15
 -1        60-9.13956E-01-4.91902E+00-1.75191E-01
 -1        61-9.06707E-01-5.02733E+00 1.39940E-02
 -1        62-8.63044E-01-4.97947E+00-1.21249E-01
 -1        63-8.41022E-01-4.97911E+00 8.86880E-02
 -1        64-9.05255E-01-4.96691E+00-1.62231E-02
 -1        65-8.73522E-01-4.92144E+00-1.91516E-01
 -1        66-9.13197E-01-4.99159E+00 3.08087E-15
 -1        67-9.08683E-01-4.94817E+00-8.86761E-02
 -1        68-9.19737E-01-4.95611E+00 7.64920E-02
 -1        69-7.39643E-01-4.11659E+00-1.26394E-01
 -1        70-6.72082E-01-4.06643E+00-8.15905E-01
 -1        71-7.46404E-01-4.07989E+00 2.55351E-15
 -1        72-7.53119E-01-4.04293E+00-6.90875E-01
 -1        73-8.44276E-01-4.69120E+00-7.96805E-02
 -1        74-7.04272E-01-4.10094E+00-4.68458E-01
 -1        75-7.73996E-01-4.63945E+00-5.14796E-01
 -1        76-7.44758E-01-4.08891E+00-6.27775E-02
 -1        77-7.14346E-01-4.04526E+00-7.53504E-01
 -1        78-8.51236E-01-4.65290E+00 4.66294E-15
 -1        79-7.48055E-01-4.07089E+00-3.43145E-01
 -1        80-8.58243E-01-4.61486E+00-4.35538E-01
 -1        81-3.95102E-01-2.21666E+00-2.07926E-01
 -1        82-3.42964E-01-2.17780E+00-1.34167E+00
 -1        83-4.00330E-01-2.18822E+00 3.55271E-15
 -1        84-4.05532E-01-2.15965E+00-1.13653E+00
 -1        85-5.88388E-01-3.28231E+00-1.69600E-01
 -1        86-3.67781E-01-2.20448E+00-7.69340E-01
 -1        87-5.27653E-01-3.23741E+00-1.09440E+00
 -1        88-3.99045E-01-2.19525E+00-1.03111E-01
 -1        89-3.75583E-01-2.16149E+00-1.23932E+00
 -1        90-5.94422E-01-3.24914E+00 3.10862E-15
 -1        91-4.01616E-01-2.18120E+00-5.63612E-01
 -1        92-6.00489E-01-3.21616E+00-9.27045E-01
 -1        93 9.09141E-02 4.63833E-01-2.63398E-01
 -1        94 1.20890E-01 4.86460E-01-1.69997E+00
 -1        95 8.78882E-02 4.80401E-01 7.10543E-15
 -1        96 8.48570E-02 4.96941E-01-1.43975E+00
 -1        97-1.66143E-01-9.53431E-01-2.39167E-01
 -1        98 1.06668E-01 4.71034E-01-9.75404E-01
 -1        99-1.24810E-01-9.22589E-01-1.54324E+00
 -1       100 8.86491E-02 4.76242E-01-1.30720E-01
 -1       101 1.02125E-01 4.95814E-01-1.57012E+00
 -1       102-1.70279E-01-9.30756E-01 4.88498E-15
 -1       103 8.71271E-02 4.84561E-01-7.14523E-01
 -1       104-1.74428E-01-9.08147E-01-1.30730E+00
 -1       105 6.56959E-01 3.58009E+00-2.89024E-01
 -1       106 6.66189E-01 3.58765E+00-1.86653E+00
 -1       107 6.55991E-01 3.58568E+00 7.77156E-15
 -1       108 6.54967E-01 3.59097E+00-1.57982E+00
 -1       109 3.67924E-01 1.98963E+00-2.79489E-01
 -1       110 6.61923E-01 3.58272E+00-1.07331E+00
 -1       111 3.87021E-01 2.00447E+00-1.80416E+00
 -1       112 6.56274E-01 3.58414E+00-1.43813E-01
 -1       113 6.60390E-01 3.59048E+00-1.72335E+00
 -1       114 3.65950E-01 2.00030E+00 8.43769E-15
 -1       115 6.55708E-01 3.58723E+00-7.86091E-01
 -1       116 3.63997E-01 2.01109E+00-1.52770E+00
 -1       117 1.24526E+00 6.80547E+00-2.93195E-01
 -1       118 1.24461E+00 6.80627E+00-1.89439E+00
 -1       119 1.24516E+00 6.80611E+00 8.65974E-15
 -1       120 1.24504E+00 6.80665E+00-1.60262E+00
 -1       121 9.51069E-01 5.19427E+00-2.92593E-01
 -1       122 1.24497E+00 6.80613E+00-1.09320E+00
 -1       123 9.54252E-01 5.19752E+00-1.89041E+00
 -1       124 1.24526E+00 6.80566E+00-1.46518E-01
 -1       125 1.24496E+00 6.80627E+00-1.74867E+00
 -1       126 9.50655E-01 5.19633E+00 6.88338E-15
 -1       127 1.24508E+00 6.80665E+00-8.00876E-01
 -1       128 9.50279E-01 5.19860E+00-1.59933E+00
 -1       129 0.00000E+00 0.00000E+00 0.00000E+00
 -1       130 0.00000E+00 0.00000E+00 0.00000E+00
 -1       131-1.33271E-01-6.78775E-01-9.72790E-02
 -1       132-7.49134E-02-6.90013E-01 4.26643E-01
 -1       133 0.00000E+00 0.00000E+00 0.00000E+00
 -1       134 0.00000E+00 0.00000E+00 0.00000E+00
 -1       135-1.29037E-01-7.01731E-01-4.60602E-02
 -1       136-9.80402E-02-7.19417E-01 4.84049E-01
 -1       137 0.00000E+00 0.00000E+00 0.00000E+00
 -1       138-4.73841E-02-1.81038E-01-5.11963E-02
 -1       139-1.06069E-01-6.73753E-01 1.48949E-01
 -1       140 3.86041E-02-2.08978E-01 2.33218E-01
 -1       141-3.96194E-01-2.15854E+00-1.35352E-01
 -1       142-3.87954E-01-2.16032E+00 6.00443E-01
 -1       143-3.95939E-01-2.16055E+00-6.59035E-02
 -1       144-3.91363E-01-2.16296E+00 6.75044E-01
 -1       145-2.55765E-01-1.36475E+00-1.23226E-01
 -1       146-3.91884E-01-2.15953E+00 2.19979E-01
 -1       147-2.21662E-01-1.37671E+00 5.45730E-01
 -1       148-6.75278E-01-3.72495E+00-1.17784E-01
 -1       149-7.12875E-01-3.71450E+00 5.22692E-01
 -1       150-6.77596E-01-3.71240E+00-5.74514E-02
 -1       151-6.97935E-01-3.69856E+00 5.87093E-01
 -1       152-5.40726E-01-2.96941E+00-1.32565E-01
 -1       153-6.93215E-01-3.72389E+00 1.92508E-01
 -1       154-5.56366E-01-2.96557E+00 5.88184E-01
 -1       155-8.67441E-01-4.80474E+00-5.61520E-02
 -1       156-9.37334E-01-4.78514E+00 2.48797E-01
 -1       157-8.71867E-01-4.78091E+00-2.72103E-02
 -1       158-9.09652E-01-4.75504E+00 2.80156E-01
 -1       159-7.87615E-01-4.35473E+00-9.12418E-02
 -1       160-9.00712E-01-4.80317E+00 9.03307E-02
 -1       161-8.42820E-01-4.33973E+00 4.04774E-01
 -1       162-8.99922E-01-4.99573E+00 3.20507E-02
 -1       163-9.84557E-01-4.97190E+00-1.43612E-01
 -1       164-9.05255E-01-4.96691E+00 1.62231E-02
 -1       165-9.51033E-01-4.93557E+00-1.58879E-01
 -1       166-9.06707E-01-5.02733E+00-1.39940E-02
 -1       167-9.40269E-01-4.99365E+00-5.71450E-02
 -1       168-9.85649E-01-5.00557E+00 6.12561E-02
 -1       169-7.39643E-01-4.11659E+00 1.26394E-01
 -1       170-8.20778E-01-4.09363E+00-5.63539E-01
 -1       171-7.44758E-01-4.08891E+00 6.27775E-02
 -1       172-7.88654E-01-4.05881E+00-6.28348E-01
 -1       173-8.44276E-01-4.69120E+00 7.96805E-02
 -1       174-7.78344E-01-4.11454E+00-2.15652E-01
 -1       175-9.28734E-01-4.66776E+00-3.55566E-01
 -1       176-3.95102E-01-2.21666E+00 2.07926E-01
 -1       177-4.57724E-01-2.19880E+00-9.26682E-01
 -1       178-3.99045E-01-2.19525E+00 1.03111E-01
 -1       179-4.32943E-01-2.17196E+00-1.03390E+00
 -1       180-5.88388E-01-3.28231E+00 1.69600E-01
 -1       181-4.25011E-01-2.21497E+00-3.53460E-01
 -1       182-6.61372E-01-3.26187E+00-7.55892E-01
 -1       183 9.09141E-02 4.63833E-01 2.63398E-01
 -1       184 5.48939E-02 4.74386E-01-1.17416E+00
 -1       185 8.86491E-02 4.76242E-01 1.30720E-01
 -1       186 6.91190E-02 4.89772E-01-1.30961E+00
 -1       187-1.66143E-01-9.53431E-01 2.39167E-01
 -1       188 7.36426E-02 4.64996E-01-4.48563E-01
 -1       189-2.15806E-01-9.39236E-01-1.06590E+00
 -1       190 6.56959E-01 3.58009E+00 2.89024E-01
 -1       191 6.45830E-01 3.58392E+00-1.28920E+00
 -1       192 6.56274E-01 3.58414E+00 1.43813E-01
 -1       193 6.50165E-01 3.58856E+00-1.43639E+00
 -1       194 3.67924E-01 1.98963E+00 2.79489E-01
 -1       195 6.51463E-01 3.58085E+00-4.95241E-01
 -1       196 3.44997E-01 1.99678E+00-1.24612E+00
 -1       197 1.24526E+00 6.80547E+00 2.93195E-01
 -1       198 1.24581E+00 6.80649E+00-1.30844E+00
 -1       199 1.24526E+00 6.80566E+00 1.46518E-01
 -1       200 1.24538E+00 6.80635E+00-1.45593E+00
 -1       201 9.51069E-01 5.19427E+00 2.92593E-01
 -1       202 1.24542E+00 6.80621E+00-5.06925E-01
 -1       203 9.47258E-01 5.19624E+00-1.30569E+00
 -1       204 0.00000E+00 0.00000E+00 0.00000E+00
 -1       205-7.49134E-02-6.90013E-01-4.26643E-01
 -1       206 0.00000E+00 0.00000E+00 0.00000E+00
 -1       207-1.24180E-01-7.28465E-01-5.31732E-01
 -1       208 0.00000E+00 0.00000E+00 0.00000E+00
 -1       209 3.86041E-02-2.08978E-01-2.33218E-01
 -1       210-1.06069E-01-6.73753E-01-1.48949E-01
 -1       211 0.00000E+00 0.00000E+00 0.00000E+00
 -1       212-9.80402E-02-7.19417E-01-4.84049E-01
 -1       213 0.00000E+00 0.00000E+00 0.00000E+00
 -1       214-3.31204E-02-2.59004E-01-2.79841E-01
 -1       215-1.28380E-01-7.05323E-01-2.51767E-01
 -1       216-3.87954E-01-2.16032E+00-6.00443E-01
 -1       217-3.94900E-01-2.16562E+00-7.39843E-01
 -1       218-2.21662E-01-1.37671E+00-5.45730E-01
 -1       219-3.91884E-01-2.15953E+00-2.19979E-01
 -1       220-3.91363E-01-2.16296E+00-6.75044E-01
 -1       221-2.49677E-01-1.39802E+00-6.73557E-01
 -1       222-3.95267E-01-2.16422E+00-3.60232E-01
 -1       223-7.12875E-01-3.71450E+00-5.22692E-01
 -1       224-6.81470E-01-3.69110E+00-6.43813E-01
 -1       225-5.56366E-01-2.96557E+00-5.88184E-01
 -1       226-6.93215E-01-3.72389E+00-1.92508E-01
 -1       227-6.97935E-01-3.69856E+00-5.87093E-01
 -1       228-5.43247E-01-2.95564E+00-7.24607E-01
 -1       229-6.79173E-01-3.70377E+00-3.14033E-01
 -1       230-9.37334E-01-4.78514E+00-2.48797E-01
 -1       231-8.79015E-01-4.74148E+00-3.06930E-01
 -1       232-8.42820E-01-4.33973E+00-4.04774E-01
 -1       233-9.00712E-01-4.80317E+00-9.03307E-02
 -1       234-9.09652E-01-4.75504E+00-2.80156E-01
 -1       235-7.96687E-01-4.30515E+00-4.98732E-01
 -1       236-8.74655E-01-4.76567E+00-1.48733E-01
 -1       237-9.84557E-01-4.97190E+00 1.43612E-01
 -1       238-9.13956E-01-4.91902E+00 1.75191E-01
 -1       239-9.85649E-01-5.00557E+00-6.12561E-02
 -1       240-9.40269E-01-4.99365E+00 5.71450E-02
 -1       241-9.51033E-01-4.93557E+00 1.58879E-01
 -1       242-9.19737E-01-4.95611E+00-7.64920E-02
 -1       243-9.08683E-01-4.94817E+00 8.86761E-02
 -1       244-8.20778E-01-4.09363E+00 5.63539E-01
 -1       245-7.53119E-01-4.04293E+00 6.90875E-01
 -1       246-9.28734E-01-4.66776E+00 3.55566E-01
 -1       247-7.78344E-01-4.11454E+00 2.15652E-01
 -1       248-7.88654E-01-4.05881E+00 6.28348E-01
 -1       249-8.58243E-01-4.61486E+00 4.35538E-01
 -1       250-7.48055E-01-4.07089E+00 3.43145E-01
 -1       251-4.57724E-01-2.19880E+00 9.26682E-01
 -1       252-4.05532E-01-2.15965E+00 1.13653E+00
 -1       253-6.61372E-01-3.26187E+00 7.55892E-01
 -1       254-4.25011E-01-2.21497E+00 3.53460E-01
 -1       255-4.32943E-01-2.17196E+00 1.03390E+00
 -1       256-6.00489E-01-3.21616E+00 9.27045E-01
 -1       257-4.01616E-01-2.18120E+00 5.63612E-01
 -1       258 5.48939E-02 4.74386E-01 1.17416E+00
 -1       259 8.48570E-02 4.96941E-01 1.43975E+00
 -1       260-2.15806E-01-9.39236E-01 1.06590E+00
 -1       261 7.36426E-02 4.64996E-01 4.48563E-01
 -1       262 6.91190E-02 4.89772E-01 1.30961E+00
 -1       263-1.74428E-01-9.08147E-01 1.30730E+00
 -1       264 8.71271E-02 4.84561E-01 7.14523E-01
 -1       265 6.45830E-01 3.58392E+00 1.28920E+00
 -1       266 6.54967E-01 3.59097E+00 1.57982E+00
 -1       267 3.44997E-01 1.99678E+00 1.24612E+00
 -1       268 6.51463E-01 3.58085E+00 4.95241E-01
 -1       269 6.50165E-01 3.58856E+00 1.43639E+00
 -1       270 3.63997E-01 2.01109E+00 1.52770E+00
 -1       271 6.55708E-01 3.58723E+00 7.86091E-01
 -1       272 1.24581E+00 6.80649E+00 1.30844E+00
 -1       273 1.24504E+00 6.80665E+00 1.60262E+00
 -1       274 9.47258E-01 5.19624E+00 1.30569E+00
 -1       275 1.24542E+00 6.80621E+00 5.06925E-01
 -1       276 1.24538E+00 6.80635E+00 1.45593E+00
 -1       277 9.50279E-01 5.19860E+00 1.59933E+00
 -1       278 1.24508E+00 6.80665E+00 8.00876E-01
 -1       279 0.00000E+00 0.00000E+00 0.00000E+00
 -1       280-1.81113E-01-7.09442E-01-6.17703E-01
 -1       281 0.00000E+00 0.00000E+00 0.00000E+00
 -1       282-1.50229E-01-7.29088E-01-5.73960E-01
 -1       283 0.00000E+00 0.00000E+00 0.00000E+00
 -1       284-1.20389E-01-2.38065E-01-3.37658E-01
 -1       285-1.58931E-01-6.83301E-01-3.42509E-01
 -1       286-4.02998E-01-2.16307E+00-8.69335E-01
 -1       287-3.99053E-01-2.16441E+00-8.05073E-01
 -1       288-2.84159E-01-1.38814E+00-7.90120E-01
 -1       289-3.99796E-01-2.16093E+00-4.90763E-01
 -1       290-6.43931E-01-3.70188E+00-7.56765E-01
 -1       291-6.63462E-01-3.69229E+00-7.00630E-01
 -1       292-5.27762E-01-2.96033E+00-8.51586E-01
 -1       293-6.58921E-01-3.71758E+00-4.28093E-01
 -1       294-8.09234E-01-4.76170E+00-3.60215E-01
 -1       295-8.45659E-01-4.74339E+00-3.33755E-01
 -1       296-7.41678E-01-4.32123E+00-5.86041E-01
 -1       297-8.37001E-01-4.79146E+00-2.02644E-01
 -1       298-8.29441E-01-4.94352E+00 2.07924E-01
 -1       299-8.73522E-01-4.92144E+00 1.91516E-01
 -1       300-8.41022E-01-4.97911E+00-8.86880E-02
 -1       301-8.63044E-01-4.97947E+00 1.21249E-01
 -1       302-6.72082E-01-4.06643E+00 8.15905E-01
 -1       303-7.14346E-01-4.04526E+00 7.53504E-01
 -1       304-7.73996E-01-4.63945E+00 5.14796E-01
 -1       305-7.04272E-01-4.10094E+00 4.68458E-01
 -1       306-3.42964E-01-2.17780E+00 1.34167E+00
 -1       307-3.75583E-01-2.16149E+00 1.23932E+00
 -1       308-5.27653E-01-3.23741E+00 1.09440E+00
 -1       309-3.67781E-01-2.20448E+00 7.69340E-01
 -1       310 1.20890E-01 4.86460E-01 1.69997E+00
 -1       311 1.02125E-01 4.95814E-01 1.57012E+00
 -1       312-1.24810E-01-9.22589E-01 1.54324E+00
 -1       313 1.06668E-01 4.71034E-01 9.75404E-01
 -1       314 6.66189E-01 3.58765E+00 1.86653E+00
 -1       315 6.60390E-01 3.59048E+00 1.72335E+00
 -1       316 3.87021E-01 2.00447E+00 1.80416E+00
 -1       317 6.61923E-01 3.58272E+00 1.07331E+00
 -1       318 1.24461E+00 6.80627E+00 1.89439E+00
 -1       319 1.24496E+00 6.80627E+00 1.74867E+00
 -1       320 9.54252E-01 5.19752E+00 1.89041E+00
 -1       321 1.24497E+00 6.80613E+00 1.09320E+00
 -3
    1PSTEP                        10           1           1          
    1PGM                1.000000E+00                                  
    1PGK                9.976274E+08                                  
    1PHID                         -1                                  
    1PSUBC                         0                                  
    1PMODE                         3                                  
  100CL  103 5026.947094         321                     2    3MODAL      1
 -4  STRESS      6    1
 -5  SXX         1    4    1    1
 -5  SYY         1    4    2    2
 -5  SZZ         1    4    3    3
 -5  SXY         1    4    1    2
 -5  SYZ         1    4    2    3
 -5  SZX         1    4    3    1
 -1         1 8.87974E+12 8.87974E+12 2.07192E+13 5.18465E+04-1.96117E+12-2.42666E+12
 -1         2 1.30248E+12 1.30248E+12 3.03908E+12 1.06006E+05-3.66455E+11-4.54447E+11
 -1         3-1.35781E+10 9.00009E+10 1.62693E+12 2.14522E+11-2.96145E+12-2.80272E+10
 -1         4 1.41090E+11-9.45778E+10 9.88916E+12 3.01661E+11-4.67688E+11 4.19699E+11
 -1         5 7.11940E+12 7.11941E+12 1.66118E+13 1.93936E+04-2.48403E+12-6.70420E+10
 -1         6-8.76904E-04-9.09448E-03 8.78525E-03-1.57440E-03-1.25882E+12-2.30298E+11
 -1         7 1.42822E-02-5.62439E-02 3.67737E-03-3.28674E-02-2.41589E+12-4.41981E+11
 -1         8 4.91950E+11-7.42188E+10 8.89291E+12 3.92462E+10-1.53198E+11-5.41790E+11
 -1         9 4.90965E+12 4.90965E+12 1.14561E+13-4.51195E+06-1.07664E+12-1.45463E+12
 -1        10 1.43585E+11 7.14513E+10 2.10742E+12-4.06543E+11-1.36771E+12-1.66080E+11
 -1        11 2.64545E+11 5.50075E+11 5.86271E+12 2.33242E+11-1.71719E+12 1.80735E+11
 -1        12 3.70783E+11 8.05709E+11 1.33250E+13-4.57469E+11-6.18665E+11-5.04415E+11
 -1        13 7.99046E+12 7.99047E+12 1.86447E+13-3.07823E+06-2.30457E+12-1.22735E+12
 -1        14 6.19996E+11 6.19996E+11 1.44669E+12-2.25953E+06-8.93483E+11-3.25757E+11
 -1        15 9.29769E+10 8.26270E+10 8.36118E+11 1.04396E+09-2.65625E+12-2.35237E+11
 -1        16 4.29622E+11-4.06187E+10 9.44357E+12 8.02287E+10-2.81378E+11-7.24004E+10
 -1        17 3.38893E+12 3.38893E+12 7.90771E+12-4.13376E+05-1.78060E+12-1.63460E+11
 -1        18 2.10571E-02 3.04565E-02 2.62756E-02-2.12860E-03-1.62682E+12-2.97622E+11
 -1        19 4.51644E+11 5.08217E+11 4.57027E+12 1.90990E+08-1.28582E+12-4.85954E+11
 -1        20 3.90557E+11 7.84842E+11 1.15193E+13-7.43759E+10-9.07804E+11-2.50219E+11
 -1        21 4.43504E+10 1.10006E+10 1.93553E+11-6.42811E+10-2.52852E+12-1.13341E+11
 -1        22 1.15343E+11 2.33724E+11 1.22612E+12-5.16319E+10-7.07129E+11-5.51583E+09
 -1        23-6.34155E-02-1.14464E-01 1.72310E-02-5.20077E-02-2.10034E+12-3.84252E+11
 -1        24 6.01298E+10 2.42422E+11 1.05797E+12-1.17600E+10-6.19527E+11-4.62585E+11
 -1        25-8.11346E+10-2.87613E+10 7.66594E+11 7.67103E+10-2.04872E+12 7.54690E+09
 -1        26 6.17077E+10 5.17104E+10 7.44161E+11-4.97024E+10-1.66979E+12-8.02090E+10
 -1        27-2.46928E+11-4.29319E+11 5.08155E+12 9.31103E+10-1.09779E+11 9.96183E+10
 -1        28 4.81307E+09 3.54456E+08 1.01989E+11-8.51190E+09-2.21396E+12-2.60210E+11
 -1        29 7.79847E+10 2.41861E+11 1.15185E+12-1.69332E+09-5.69056E+11-1.99926E+11
 -1        30 6.66809E-03 2.13623E-03 3.27301E-02 3.68500E-03-1.66062E+12-3.03806E+11
 -1        31 1.93747E+09 2.63085E+10 5.57479E+11-1.55723E+09-1.42232E+12-4.05038E+11
 -1        32-1.57211E+11-4.43486E+11 4.19024E+12 1.40339E+10 4.12518E+10-3.74807E+11
 -1        33-2.04165E+10-1.56724E+10-9.14781E+11 1.19045E+10-1.97554E+12-8.93365E+10
 -1        34-9.32669E+10-1.21107E+11-5.87135E+12 1.61964E+10-5.73840E+11-1.23986E+10
 -1        35 4.39034E-02 7.69260E-01 2.42474E-01 4.12426E-02-1.65046E+12-3.01947E+11
 -1        36-8.56660E+10-1.11598E+11-5.00024E+12 2.17789E+09-4.88318E+11-3.61419E+11
 -1        37 1.35378E+10 3.53251E+09-3.63825E+11-1.75277E+10-1.72193E+12-8.89581E+09
 -1        38-2.30904E+10-3.05975E+10-3.30836E+12 1.38030E+10-1.30119E+12-6.57934E+10
 -1        39 3.75243E+10 5.19717E+10-2.33718E+12-1.58921E+10-1.43186E+11 7.85608E+10
 -1        40-3.32154E+09-2.49528E+09-4.44226E+11 3.59485E+09-1.74600E+12-2.01573E+11
 -1        41-8.90146E+10-1.13894E+11-5.43832E+12 7.67080E+09-4.68996E+11-1.58160E+11
 -1        42-6.51054E-02 1.88747E-01 7.18880E-02 6.07777E-02-1.34811E+12-2.46633E+11
 -1        43-1.36393E+10-1.81557E+10-2.42816E+12 6.57669E+08-1.10181E+12-3.19425E+11
 -1        44 1.93089E+10 7.39986E+10-1.98869E+12-3.20665E+09-4.86250E+10-3.15023E+11
 -1        45-8.56173E+09-1.47447E+10-1.67811E+12-7.81344E+09-1.18660E+12-5.35582E+10
 -1        46-7.40011E+10-7.18767E+10-1.08032E+13-2.91680E+09-3.43387E+11-6.64161E+09
 -1        47 3.70399E-01 3.39516E-01 1.61177E-01-2.26884E-02-9.92231E+11-1.81526E+11
 -1        48-8.05954E+10-4.67989E+10-9.17263E+12-1.42945E+09-2.92752E+11-2.17086E+11
 -1        49-9.87694E+09-4.38714E+09-1.29859E+12 1.06845E+10-1.21399E+12-3.67955E+09
 -1        50-2.07799E+10-4.39394E+10-6.15187E+12-2.88260E+09-7.84238E+11-3.93005E+10
 -1        51-2.18171E+10-6.35498E+10-8.35340E+12 1.60308E+10-9.16054E+10 5.83252E+10
 -1        52-4.74158E+09-4.69924E+09-8.25393E+11 2.95778E+09-1.04693E+12-1.21782E+11
 -1        53-8.47290E+10-5.85405E+10-9.99346E+12 5.63973E+09-2.78475E+11-9.57606E+10
 -1        54 1.28065E-01 2.41227E-01 1.26415E-01 1.08827E-01-9.54056E+11-1.74542E+11
 -1        55-2.56863E+10-2.59178E+10-4.51164E+12 5.41119E+08-6.65665E+11-1.91532E+11
 -1        56-2.39804E+10-5.39879E+10-7.09814E+12 1.95469E+09-2.01126E+10-2.22097E+11
 -1        57-1.29933E+10-1.66301E+10-2.02645E+12-3.08131E+09-2.73479E+11-1.25723E+10
 -1        58-8.85295E+10-9.58756E+10-1.30522E+13 1.88774E+09-8.05631E+10-2.62138E+09
 -1        59 5.65233E-02-1.15995E-02 9.70707E-02 7.65150E-02-2.28952E+11-4.18861E+10
 -1        60-9.09009E+10-7.10219E+10-1.10767E+13-5.63717E+08-6.87211E+10-5.00323E+10
 -1        61-5.22757E+09-3.16498E+09-1.85482E+12 4.27103E+09-5.60227E+11-1.93659E+09
 -1        62-2.48786E+10-4.71380E+10-7.44285E+12 1.35627E+09-1.81061E+11-9.49592E+09
 -1        63-8.71156E+09-4.28674E+10-1.19467E+13 1.06883E+10-4.22089E+10 2.65619E+10
 -1        64-4.93974E+09-4.60876E+09-9.98218E+11 3.55581E+09-2.41688E+11-2.81049E+10
 -1        65-9.56640E+10-8.19280E+10-1.20694E+13 6.58903E+09-6.58721E+10-2.27333E+10
 -1        66 2.81263E-01 1.65615E-01 1.23384E-01 9.26231E-02-4.40436E+11-8.05766E+10
 -1        67-2.51917E+10-2.70009E+10-5.45631E+12 6.50526E+08-1.53623E+11-4.42162E+10
 -1        68-1.73000E+10-2.85742E+10-1.01386E+13 7.81374E+08-1.05855E+10-1.02492E+11
 -1        69-9.68380E+09-1.32970E+10-1.93681E+12-3.64918E+09 5.75533E+11 2.60245E+10
 -1        70-6.99387E+10-7.37160E+10-1.24818E+13 3.26895E+08 1.67073E+11 2.43676E+09
 -1        71-2.27033E-01-5.36138E-01-2.83066E-01-1.31781E-01 4.80158E+11 8.78437E+10
 -1        72-7.26820E+10-5.29322E+10-1.05867E+13-6.67607E+08 1.42251E+11 1.05292E+11
 -1        73-6.14229E+09-3.23551E+09-1.98407E+12 5.74794E+09 1.19160E+11 2.58642E+08
 -1        74-1.97859E+10-3.84528E+10-7.13165E+12 8.48150E+07 3.79806E+11 1.91156E+10
 -1        75-1.11183E+10-4.60823E+10-1.27851E+13 1.17205E+10 9.22867E+09-7.01671E+09
 -1        76-4.06023E+09-3.84901E+09-9.56375E+11 2.83388E+09 5.07512E+11 5.88773E+10
 -1        77-7.66683E+10-6.23090E+10-1.15388E+13 5.18068E+09 1.35604E+11 4.48857E+10
 -1        78 2.41280E-03-2.19505E-01-9.83601E-02 3.10333E-02 9.22077E+10 1.68692E+10
 -1        79-2.10389E+10-2.21934E+10-5.22760E+12 5.18451E+08 3.21826E+11 9.28479E+10
 -1        80-1.76855E+10-3.35741E+10-1.08450E+13 1.05157E+09 1.41375E+09 2.18001E+10
 -1        81-5.29022E+09-7.08528E+09-1.48694E+12-1.89466E+09 1.16869E+12 5.28766E+10
 -1        82-3.72185E+10-3.95805E+10-9.59157E+12 2.64658E+08 3.39503E+11 5.26879E+09
 -1        83-5.26572E-01-1.30005E-01-1.67580E-01 1.83963E-01 9.75702E+11 1.78502E+11
 -1        84-3.87285E+10-2.89166E+10-8.12767E+12-3.46623E+08 2.89027E+11 2.13808E+11
 -1        85-4.07119E+09-2.16049E+09-1.71409E+12 3.69830E+09 6.75359E+11 2.06918E+09
 -1        86-1.05151E+10-2.04251E+10-5.49778E+12 9.14467E+07 7.71686E+11 3.87268E+10
 -1        87-7.22240E+09-3.10791E+10-1.10529E+13 7.82157E+09 5.19420E+10-3.44657E+10
 -1        88-2.15827E+09-2.03335E+09-7.37040E+11 1.46671E+09 1.03092E+12 1.19664E+11
 -1        89-4.08157E+10-3.36422E+10-8.86226E+12 2.80317E+09 2.75627E+11 9.20096E+10
 -1        90-3.57988E-01-3.53548E-01-1.92842E-01 1.24202E-01 5.27958E+11 9.65884E+10
 -1        91-1.11144E+10-1.17972E+10-4.02870E+12 2.68330E+08 6.54091E+11 1.88603E+11
 -1        92-1.18094E+10-2.22534E+10-9.36929E+12 6.76594E+08 1.13102E+10 1.23555E+11
 -1        93 1.74240E+09 1.92860E+09-8.40874E+11-2.14993E+08 1.34076E+12 6.03647E+10
 -1        94 1.07242E+10 1.23262E+10-5.44037E+12-2.95458E+08 3.87601E+11 6.07361E+09
 -1        95-5.25531E-01-3.46129E-01-1.50702E-01-6.25916E-02 1.11850E+12 2.04627E+11
 -1        96 1.05418E+10 9.52403E+09-4.59626E+12-3.93325E+07 3.29957E+11 2.45288E+11
 -1        97-1.19998E+09-4.87874E+08-1.16547E+12 1.16131E+09 9.71674E+11 2.90486E+09
 -1        98 2.54800E+09 5.30748E+09-3.15281E+12-3.97162E+08 8.84175E+11 4.46014E+10
 -1        99-2.34557E+09-9.73631E+09-7.52816E+12 2.43400E+09 7.39822E+10-4.93392E+10
 -1       100 5.06227E+08 3.91358E+08-4.22354E+11-6.21048E+08 1.18209E+12 1.37061E+11
 -1       101 1.13515E+10 1.08761E+10-5.01787E+12-7.22402E+08 3.14227E+11 1.04780E+11
 -1       102-5.09523E-01-2.71206E-02-8.39195E-02 1.59737E-01 7.59689E+11 1.38983E+11
 -1       103 2.13918E+09 2.76706E+09-2.30861E+12-1.13619E+08 7.49185E+11 2.16260E+11
 -1       104-2.66675E+09-6.55914E+09-6.37050E+12 2.12459E+08 1.58781E+10 1.77765E+11
 -1       105 8.75212E+09 1.21762E+10-2.31236E+11 2.18393E+09 9.69461E+11 4.42686E+10
 -1       106 5.92748E+10 6.50571E+10-1.54380E+12-2.66897E+09 2.85772E+11 4.27585E+09
 -1       107 1.09984E+00 3.94394E-01 3.70143E-01 4.67753E-01 8.08542E+11 1.47921E+11
 -1       108 6.65557E+10 4.78396E+10-1.26395E+12 3.99544E+08 2.41974E+11 1.77360E+11
 -1       109 2.32539E+09 1.46417E+09-5.37008E+11-1.83317E+09 8.95117E+11 2.88189E+09
 -1       110 1.94922E+10 3.77270E+10-9.51912E+11-1.95011E+09 6.42162E+11 3.19084E+10
 -1       111 4.37949E+09 1.95361E+10-3.49073E+12-5.13641E+09 7.13327E+10-4.74652E+10
 -1       112 4.15921E+09 4.06624E+09-1.25745E+11-3.25275E+09 8.55352E+11 9.93409E+10
 -1       113 6.70731E+10 5.46500E+10-1.40219E+12-5.95665E+09 2.32497E+11 7.71188E+10
 -1       114 3.21101E-01 1.07651E-01 1.48417E-01 1.10787E-01 6.99171E+11 1.27911E+11
 -1       115 2.22263E+10 2.27344E+10-6.87331E+11-5.95082E+08 5.43003E+11 1.56484E+11
 -1       116 8.00325E+09 1.27107E+10-2.93532E+12-3.35373E+08 1.57526E+10 1.63759E+11
 -1       117 1.45024E+10 1.63874E+10 4.63061E+10-7.17858E+09 1.75611E+11 1.15441E+10
 -1       118 8.35524E+10 1.06860E+11 3.07402E+11-6.43639E+09 7.44298E+10 6.17252E+09
 -1       119 1.47568E-01 1.00059E+00 4.84192E-01 2.07204E-01 1.36771E+11 2.50218E+10
 -1       120 8.95744E+10 7.92709E+10 2.53112E+11-1.31330E+09 6.31008E+10 3.21276E+10
 -1       121 6.46723E+09 5.31463E+09-8.40732E+10-6.22217E+09 4.08039E+11-2.63568E+06
 -1       122 2.83663E+10 6.97886E+10 9.16608E+10-8.59824E+09 1.36566E+11 8.92737E+09
 -1       123 1.47786E+10 4.50229E+10-5.67111E+11-9.90265E+09 2.19601E+10-1.94246E+10
 -1       124 8.54064E+09 5.07157E+09 9.60115E+09-1.14263E+10 1.40539E+11 2.03183E+10
 -1       125 9.49276E+10 9.37319E+10 2.83101E+11-1.12740E+10 5.39090E+10 2.24194E+10
 -1       126 4.46873E-01 3.64264E-01 2.58105E-01 3.69117E-01 3.13252E+11 5.73086E+10
 -1       127 2.77215E+10 4.66836E+10 5.24804E+10-2.09041E+09 1.11061E+11 2.57111E+10
 -1       128 2.90500E+10 3.53502E+10-4.59549E+11-1.13833E+09-1.44067E+07 7.46496E+10
 -1       129 6.13317E+12 6.13317E+12 1.43106E+13-3.58099E+04-1.17835E+12 1.85229E+12
 -1       130-1.30248E+12-1.30248E+12-3.03908E+12-1.06006E+05-3.66455E+11-4.54447E+11
 -1       131 1.35781E+10-9.00009E+10-1.62693E+12-2.14522E+11-2.96145E+12-2.80272E+10
 -1       132 1.86666E+11-1.54540E+11 6.83036E+12-2.08355E+11-6.58962E+11-6.25816E+11
 -1       133 6.68524E+12 6.68524E+12 1.55991E+13 1.58336E+06-1.91350E+12 9.04781E+11
 -1       134-6.19996E+11-6.19996E+11-1.44669E+12 2.25953E+06-8.93483E+11-3.25757E+11
 -1       135-9.29769E+10-8.26270E+10-8.36118E+11-1.04396E+09-2.65625E+12-2.35237E+11
 -1       136 2.51137E+11-1.43579E+11 7.87819E+12 2.51205E+09-3.69286E+11-5.72652E+11
 -1       137 2.22477E+12 2.22476E+12 5.19128E+12 3.65912E+06-6.86567E+11 6.82944E+11
 -1       138-1.43585E+11-7.14513E+10-2.10742E+12 4.06543E+11-1.36771E+12-1.66080E+11
 -1       139 2.98244E+11 4.25532E+11 2.69374E+12-2.19024E+11-1.80871E+12-2.99772E+11
 -1       140 9.14495E+10 7.21144E+11 9.20351E+12 3.15971E+11-4.70558E+11 3.05145E+11
 -1       141-4.43504E+10-1.10006E+10-1.93553E+11 6.42811E+10-2.52852E+12-1.13341E+11
 -1       142 3.48512E+10 2.06246E+11 8.46874E+11 3.56617E+10-7.54015E+11-2.61797E+11
 -1       143-4.81307E+09-3.54456E+08-1.01989E+11 8.51190E+09-2.21396E+12-2.60210E+11
 -1       144 6.38099E+10 2.35251E+11 9.49913E+11-1.70050E+10-5.78103E+11-4.18350E+11
 -1       145 8.11346E+10 2.87613E+10-7.66594E+11-7.67103E+10-2.04872E+12 7.54690E+09
 -1       146-2.55786E+10 2.57695E+10 3.59648E+11 5.25036E+10-1.70975E+12-1.29661E+11
 -1       147-1.01504E+11-3.65575E+11 3.50978E+12-6.43106E+10-1.55094E+11-1.48076E+11
 -1       148 2.04165E+10 1.56724E+10 9.14781E+11-1.19045E+10-1.97554E+12-8.93365E+10
 -1       149-5.38795E+10-9.41867E+10-4.05530E+12-1.11867E+10-6.08889E+11-2.03978E+11
 -1       150 3.32154E+09 2.49528E+09 4.44226E+11-3.59485E+09-1.74600E+12-2.01573E+11
 -1       151-8.35964E+10-1.13041E+11-4.56253E+12-2.97674E+09-4.76571E+11-3.23472E+11
 -1       152-1.35378E+10-3.53251E+09 3.63825E+11 1.75277E+10-1.72193E+12-8.89581E+09
 -1       153 1.84268E+10 9.81243E+08-1.47873E+12-1.18550E+10-1.33144E+12-1.07196E+11
 -1       154 2.04484E+10 4.13658E+10-1.61427E+12 1.09765E+10-1.82843E+11-1.38207E+11
 -1       155 8.56173E+09 1.47447E+10 1.67811E+12 7.81344E+09-1.18660E+12-5.35582E+10
 -1       156-5.19163E+10-4.88405E+10-7.46167E+12 2.01461E+09-3.64655E+11-1.22893E+11
 -1       157 4.74158E+09 4.69924E+09 8.25393E+11-2.95778E+09-1.04693E+12-1.21782E+11
 -1       158-7.39632E+10-5.47283E+10-8.35670E+12-7.12158E+09-2.82884E+11-1.94493E+11
 -1       159 9.87694E+09 4.38714E+09 1.29859E+12-1.06845E+10-1.21399E+12-3.67955E+09
 -1       160-5.77244E+07-1.49071E+10-2.79476E+12 5.21724E+09-8.02301E+11-6.33988E+10
 -1       161 7.29637E+08-5.96919E+10-5.76963E+12-1.10723E+10-1.20030E+11-9.70433E+10
 -1       162 1.29933E+10 1.66301E+10 2.02645E+12 3.08131E+09-2.73479E+11-1.25723E+10
 -1       163-5.83656E+10-6.90016E+10-9.01506E+12-1.30385E+09-8.51503E+10-2.76954E+10
 -1       164 4.93974E+09 4.60876E+09 9.98218E+11-3.55581E+09-2.41688E+11-2.81049E+10
 -1       165-8.44447E+10-7.81839E+10-1.00877E+13-6.53194E+09-6.68394E+10-4.42357E+10
 -1       166 5.22757E+09 3.16498E+09 1.85482E+12-4.27103E+09-5.60227E+11-1.93659E+09
 -1       167 4.41341E+09-1.41876E+10-3.38926E+12 1.04418E+09-1.84995E+11-1.47833E+10
 -1       168 6.91321E+09-4.25384E+10-8.25150E+12-7.38232E+09-5.51876E+10-4.43804E+10
 -1       169 9.68380E+09 1.32970E+10 1.93681E+12 3.64918E+09 5.75533E+11 2.60245E+10
 -1       170-4.68761E+10-5.23450E+10-8.62109E+12-2.25784E+08 1.77722E+11 6.06426E+10
 -1       171 4.06023E+09 3.84901E+09 9.56375E+11-2.83388E+09 5.07512E+11 5.88773E+10
 -1       172-6.74213E+10-5.91342E+10-9.63814E+12-5.50737E+09 1.37759E+11 9.57869E+10
 -1       173 6.14229E+09 3.23551E+09 1.98407E+12-5.74794E+09 1.19160E+11 2.58642E+08
 -1       174 2.43184E+09-1.20920E+10-3.25739E+12 1.87054E+09 3.89118E+11 3.08955E+10
 -1       175 5.55682E+09-4.50649E+10-8.83057E+12-8.09525E+09 1.25241E+10 1.09963E+10
 -1       176 5.29022E+09 7.08528E+09 1.48694E+12 1.89466E+09 1.16869E+12 5.28766E+10
 -1       177-2.48124E+10-2.82321E+10-6.62483E+12-1.82797E+08 3.61022E+11 1.22890E+11
 -1       178 2.15827E+09 2.03335E+09 7.37040E+11-1.46671E+09 1.03092E+12 1.19664E+11
 -1       179-3.59102E+10-3.19915E+10-7.39477E+12-2.96269E+09 2.80055E+11 1.93751E+11
 -1       180 4.07119E+09 2.16049E+09 1.71409E+12-3.69830E+09 6.75359E+11 2.06918E+09
 -1       181 1.49240E+09-6.38833E+09-2.52360E+12 9.63401E+08 7.90299E+11 6.29337E+10
 -1       182 4.04285E+09-3.04974E+10-7.63414E+12-5.40230E+09 6.85869E+10 5.65162E+10
 -1       183-1.74240E+09-1.92860E+09 8.40874E+11 2.14993E+08 1.34076E+12 6.03647E+10
 -1       184 6.80069E+09 9.12005E+09-3.75762E+12 2.04070E+08 4.12146E+11 1.40238E+11
 -1       185-5.06227E+08-3.91358E+08 4.22354E+11 6.21048E+08 1.18209E+12 1.37061E+11
 -1       186 1.01285E+10 1.06647E+10-4.17185E+12 6.22082E+08 3.19105E+11 2.22681E+11
 -1       187 1.19998E+09 4.87874E+08 1.16547E+12-1.16131E+09 9.71674E+11 2.90486E+09
 -1       188-1.39283E+09 1.37776E+09-1.47158E+12 1.51193E+08 9.05745E+11 7.12648E+10
 -1       189 1.17781E+09-9.52268E+09-5.19964E+12-1.68115E+09 9.77841E+10 8.07634E+10
 -1       190-8.75212E+09-1.21762E+10 2.31236E+11-2.18393E+09 9.69461E+11 4.42686E+10
 -1       191 3.87517E+10 4.71234E+10-1.06629E+12 1.84344E+09 3.03945E+11 1.03611E+11
 -1       192-4.15921E+09-4.06624E+09 1.25745E+11 3.25275E+09 8.55352E+11 9.93409E+10
 -1       193 5.74363E+10 5.10558E+10-1.13894E+12 5.63095E+09 2.36519E+11 1.60640E+11
 -1       194-2.32539E+09-1.46417E+09 5.37008E+11 1.83317E+09 8.95117E+11 2.88189E+09
 -1       195 1.53578E+08 1.49483E+10-4.87019E+11-1.69813E+08 6.57442E+11 5.38968E+10
 -1       196-2.71290E+09 1.92312E+10-2.41102E+12 3.54768E+09 9.42417E+10 7.77566E+10
 -1       197-1.45024E+10-1.63874E+10-4.63061E+10 7.17858E+09 1.75611E+11 1.15441E+10
 -1       198 4.88855E+10 8.26309E+10 2.12320E+11 4.44556E+09 7.72479E+10 2.15765E+10
 -1       199-8.54064E+09-5.07157E+09-9.60115E+09 1.14263E+10 1.40539E+11 2.03183E+10
 -1       200 7.50825E+10 8.94851E+10 2.68008E+11 8.79982E+09 5.42630E+10 2.77268E+10
 -1       201-6.46723E+09-5.31463E+09 8.40732E+10 6.22217E+09 4.08039E+11-2.63568E+06
 -1       202-5.15280E+09 3.86857E+10-9.16309E+09 4.92578E+09 1.37537E+11 1.08624E+10
 -1       203-1.24198E+09 4.25464E+10-3.91699E+11 6.83968E+09 3.08345E+10 2.90832E+10
 -1       204-6.13317E+12-6.13317E+12-1.43106E+13 3.58099E+04-1.17835E+12 1.85229E+12
 -1       205-1.86666E+11 1.54540E+11-6.83036E+12 2.08355E+11-6.58962E+11-6.25816E+11
 -1       206-7.11940E+12-7.11941E+12-1.66118E+13-1.93936E+04-2.48403E+12-6.70420E+10
 -1       207-4.91950E+11 7.42188E+10-8.89291E+12-3.92462E+10-1.53198E+11-5.41790E+11
 -1       208-2.22477E+12-2.22476E+12-5.19128E+12-3.65912E+06-6.86567E+11 6.82944E+11
 -1       209-9.14495E+10-7.21144E+11-9.20351E+12-3.15971E+11-4.70558E+11 3.05145E+11
 -1       210-2.98244E+11-4.25532E+11-2.69374E+12 2.19024E+11-1.80871E+12-2.99772E+11
 -1       211-6.68524E+12-6.68524E+12-1.55991E+13-1.58336E+06-1.91350E+12 9.04781E+11
 -1       212-2.51137E+11 1.43579E+11-7.87819E+12-2.51205E+09-3.69286E+11-5.72652E+11
 -1       213-3.38893E+12-3.38893E+12-7.90771E+12 4.13376E+05-1.78060E+12-1.63460E+11
 -1       214-3.90557E+11-7.84842E+11-1.15193E+13 7.43759E+10-9.07804E+11-2.50219E+11
 -1       215-4.51644E+11-5.08217E+11-4.57027E+12-1.90990E+08-1.28582E+12-4.85954E+11
 -1       216-3.48512E+10-2.06246E+11-8.46874E+11-3.56617E+10-7.54015E+11-2.61797E+11
 -1       217-6.01298E+10-2.42422E+11-1.05797E+12 1.17600E+10-6.19527E+11-4.62585E+11
 -1       218 1.01504E+11 3.65575E+11-3.50978E+12 6.43106E+10-1.55094E+11-1.48076E+11
 -1       219 2.55786E+10-2.57695E+10-3.59648E+11-5.25036E+10-1.70975E+12-1.29661E+11
 -1       220-6.38099E+10-2.35251E+11-9.49913E+11 1.70050E+10-5.78103E+11-4.18350E+11
 -1       221 1.57211E+11 4.43486E+11-4.19024E+12-1.40339E+10 4.12518E+10-3.74807E+11
 -1       222-1.93747E+09-2.63085E+10-5.57479E+11 1.55723E+09-1.42232E+12-4.05038E+11
 -1       223 5.38795E+10 9.41867E+10 4.05530E+12 1.11867E+10-6.08889E+11-2.03978E+11
 -1       224 8.56660E+10 1.11598E+11 5.00024E+12-2.17789E+09-4.88318E+11-3.61419E+11
 -1       225-2.04484E+10-4.13658E+10 1.61427E+12-1.09765E+10-1.82843E+11-1.38207E+11
 -1       226-1.84268E+10-9.81243E+08 1.47873E+12 1.18550E+10-1.33144E+12-1.07196E+11
 -1       227 8.35964E+10 1.13041E+11 4.56253E+12 2.97674E+09-4.76571E+11-3.23472E+11
 -1       228-1.93089E+10-7.39986E+10 1.98869E+12 3.20665E+09-4.86250E+10-3.15023E+11
 -1       229 1.36393E+10 1.81557E+10 2.42816E+12-6.57669E+08-1.10181E+12-3.19425E+11
 -1       230 5.19163E+10 4.88405E+10 7.46167E+12-2.01461E+09-3.64655E+11-1.22893E+11
 -1       231 8.05954E+10 4.67989E+10 9.17263E+12 1.42945E+09-2.92752E+11-2.17086E+11
 -1       232-7.29637E+08 5.96919E+10 5.76963E+12 1.10723E+10-1.20030E+11-9.70433E+10
 -1       233 5.77244E+07 1.49071E+10 2.79476E+12-5.21724E+09-8.02301E+11-6.33988E+10
 -1       234 7.39632E+10 5.47283E+10 8.35670E+12 7.12158E+09-2.82884E+11-1.94493E+11
 -1       235 2.39804E+10 5.39879E+10 7.09814E+12-1.95469E+09-2.01126E+10-2.22097E+11
 -1       236 2.56863E+10 2.59178E+10 4.51164E+12-5.41119E+08-6.65665E+11-1.91532E+11
 -1       237 5.83656E+10 6.90016E+10 9.01506E+12 1.30385E+09-8.51503E+10-2.76954E+10
 -1       238 9.09009E+10 7.10219E+10 1.10767E+13 5.63717E+08-6.87211E+10-5.00323E+10
 -1       239-6.91321E+09 4.25384E+10 8.25150E+12 7.38232E+09-5.51876E+10-4.43804E+10
 -1       240-4.41341E+09 1.41876E+10 3.38926E+12-1.04418E+09-1.84995E+11-1.47833E+10
 -1       241 8.44447E+10 7.81839E+10 1.00877E+13 6.53194E+09-6.68394E+10-4.42357E+10
 -1       242 1.73000E+10 2.85742E+10 1.01386E+13-7.81374E+08-1.05855E+10-1.02492E+11
 -1       243 2.51917E+10 2.70009E+10 5.45631E+12-6.50526E+08-1.53623E+11-4.42162E+10
 -1       244 4.68761E+10 5.23450E+10 8.62109E+12 2.25784E+08 1.77722E+11 6.06426E+10
 -1       245 7.26820E+10 5.29322E+10 1.05867E+13 6.67607E+08 1.42251E+11 1.05292E+11
 -1       246-5.55682E+09 4.50649E+10 8.83057E+12 8.09525E+09 1.25241E+10 1.09963E+10
 -1       247-2.43184E+09 1.20920E+10 3.25739E+12-1.87054E+09 3.89118E+11 3.08955E+10
 -1       248 6.74213E+10 5.91342E+10 9.63814E+12 5.50737E+09 1.37759E+11 9.57869E+10
 -1       249 1.76855E+10 3.35741E+10 1.08450E+13-1.05157E+09 1.41375E+09 2.18001E+10
 -1       250 2.10389E+10 2.21934E+10 5.22760E+12-5.18451E+08 3.21826E+11 9.28479E+10
 -1       251 2.48124E+10 2.82321E+10 6.62483E+12 1.82797E+08 3.61022E+11 1.22890E+11
 -1       252 3.87285E+10 2.89166E+10 8.12767E+12 3.46623E+08 2.89027E+11 2.13808E+11
 -1       253-4.04285E+09 3.04974E+10 7.63414E+12 5.40230E+09 6.85869E+10 5.65162E+10
 -1       254-1.49240E+09 6.38833E+09 2.52360E+12-9.63401E+08 7.90299E+11 6.29337E+10
 -1       255 3.59102E+10 3.19915E+10 7.39477E+12 2.96269E+09 2.80055E+11 1.93751E+11
 -1       256 1.18094E+10 2.22534E+10 9.36929E+12-6.76594E+08 1.13102E+10 1.23555E+11
 -1       257 1.11144E+10 1.17972E+10 4.02870E+12-2.68330E+08 6.54091E+11 1.88603E+11
 -1       258-6.80069E+09-9.12005E+09 3.75762E+12-2.04070E+08 4.12146E+11 1.40238E+11
 -1       259-1.05418E+10-9.52403E+09 4.59626E+12 3.93325E+07 3.29957E+11 2.45288E+11
 -1       260-1.17781E+09 9.52268E+09 5.19964E+12 1.68115E+09 9.77841E+10 8.07634E+10
 -1       261 1.39283E+09-1.37776E+09 1.47158E+12-1.51193E+08 9.05745E+11 7.12648E+10
 -1       262-1.01285E+10-1.06647E+10 4.17185E+12-6.22082E+08 3.19105E+11 2.22681E+11
 -1       263 2.66675E+09 6.55914E+09 6.37050E+12-2.12459E+08 1.58781E+10 1.77765E+11
 -1       264-2.13918E+09-2.76706E+09 2.30861E+12 1.13619E+08 7.49185E+11 2.16260E+11
 -1       265-3.87517E+10-4.71234E+10 1.06629E+12-1.84344E+09 3.03945E+11 1.03611E+11
 -1       266-6.65557E+10-4.78396E+10 1.26395E+12-3.99544E+08 2.41974E+11 1.77360E+11
 -1       267 2.71290E+09-1.92312E+10 2.41102E+12-3.54768E+09 9.42417E+10 7.77566E+10
 -1       268-1.53578E+08-1.49483E+10 4.87019E+11 1.69813E+08 6.57442E+11 5.38968E+10
 -1       269-5.74363E+10-5.10558E+10 1.13894E+12-5.63095E+09 2.36519E+11 1.60640E+11
 -1       270-8.00325E+09-1.27107E+10 2.93532E+12 3.35373E+08 1.57526E+10 1.63759E+11
 -1       271-2.22263E+10-2.27344E+10 6.87331E+11 5.95082E+08 5.43003E+11 1.56484E+11
 -1       272-4.88855E+10-8.26309E+10-2.12320E+11-4.44556E+09 7.72479E+10 2.15765E+10
 -1       273-8.95744E+10-7.92709E+10-2.53112E+11 1.31330E+09 6.31008E+10 3.21276E+10
 -1       274 1.24198E+09-4.25464E+10 3.91699E+11-6.83968E+09 3.08345E+10 2.90832E+10
 -1       275 5.15280E+09-3.86857E+10 9.16309E+09-4.92578E+09 1.37537E+11 1.08624E+10
 -1       276-7.50825E+10-8.94851E+10-2.68008E+11-8.79982E+09 5.42630E+10 2.77268E+10
 -1       277-2.90500E+10-3.53502E+10 4.59549E+11 1.13833E+09-1.44067E+07 7.46496E+10
 -1       278-2.77215E+10-4.66836E+10-5.24804E+10 2.09041E+09 1.11061E+11 2.57111E+10
 -1       279-8.87974E+12-8.87974E+12-2.07192E+13-5.18465E+04-1.96117E+12-2.42666E+12
 -1       280-1.41090E+11 9.45778E+10-9.88916E+12-3.01661E+11-4.67688E+11 4.19699E+11
 -1       281-7.99046E+12-7.99047E+12-1.86447E+13 3.07823E+06-2.30457E+12-1.22735E+12
 -1       282-4.29622E+11 4.06187E+10-9.44357E+12-8.02287E+10-2.81378E+11-7.24004E+10
 -1       283-4.90965E+12-4.90965E+12-1.14561E+13 4.51195E+06-1.07664E+12-1.45463E+12
 -1       284-3.70783E+11-8.05709E+11-1.33250E+13 4.57469E+11-6.18665E+11-5.04415E+11
 -1       285-2.64545E+11-5.50075E+11-5.86271E+12-2.33242E+11-1.71719E+12 1.80735E+11
 -1       286-1.15343E+11-2.33724E+11-1.22612E+12 5.16319E+10-7.07129E+11-5.51583E+09
 -1       287-7.79847E+10-2.41861E+11-1.15185E+12 1.69332E+09-5.69056E+11-1.99926E+11
 -1       288 2.46928E+11 4.29319E+11-5.08155E+12-9.31103E+10-1.09779E+11 9.96183E+10
 -1       289-6.17077E+10-5.17104E+10-7.44161E+11 4.97024E+10-1.66979E+12-8.02090E+10
 -1       290 9.32669E+10 1.21107E+11 5.87135E+12-1.61964E+10-5.73840E+11-1.23986E+10
 -1       291 8.90146E+10 1.13894E+11 5.43832E+12-7.67080E+09-4.68996E+11-1.58160E+11
 -1       292-3.75243E+10-5.19717E+10 2.33718E+12 1.58921E+10-1.43186E+11 7.85608E+10
 -1       293 2.30904E+10 3.05975E+10 3.30836E+12-1.38030E+10-1.30119E+12-6.57934E+10
 -1       294 7.40011E+10 7.18767E+10 1.08032E+13 2.91680E+09-3.43387E+11-6.64161E+09
 -1       295 8.47290E+10 5.85405E+10 9.99346E+12-5.63973E+09-2.78475E+11-9.57606E+10
 -1       296 2.18171E+10 6.35498E+10 8.35340E+12-1.60308E+10-9.16054E+10 5.83252E+10
 -1       297 2.07799E+10 4.39394E+10 6.15187E+12 2.88260E+09-7.84238E+11-3.93005E+10
 -1       298 8.85295E+10 9.58756E+10 1.30522E+13-1.88774E+09-8.05631E+10-2.62138E+09
 -1       299 9.56640E+10 8.19280E+10 1.20694E+13-6.58903E+09-6.58721E+10-2.27333E+10
 -1       300 8.71156E+09 4.28674E+10 1.19467E+13-1.06883E+10-4.22089E+10 2.65619E+10
 -1       301 2.48786E+10 4.71380E+10 7.44285E+12-1.35627E+09-1.81061E+11-9.49592E+09
 -1       302 6.99387E+10 7.37160E+10 1.24818E+13-3.26895E+08 1.67073E+11 2.43676E+09
 -1       303 7.66683E+10 6.23090E+10 1.15388E+13-5.18068E+09 1.35604E+11 4.48857E+10
 -1       304 1.11183E+10 4.60823E+10 1.27851E+13-1.17205E+10 9.22867E+09-7.01671E+09
 -1       305 1.97859E+10 3.84528E+10 7.13165E+12-8.48150E+07 3.79806E+11 1.91156E+10
 -1       306 3.72185E+10 3.95805E+10 9.59157E+12-2.64658E+08 3.39503E+11 5.26879E+09
 -1       307 4.08157E+10 3.36422E+10 8.86226E+12-2.80317E+09 2.75627E+11 9.20096E+10
 -1       308 7.22240E+09 3.10791E+10 1.10529E+13-7.82157E+09 5.19420E+10-3.44657E+10
 -1       309 1.05151E+10 2.04251E+10 5.49778E+12-9.14467E+07 7.71686E+11 3.87268E+10
 -1       310-1.07242E+10-1.23262E+10 5.44037E+12 2.95458E+08 3.87601E+11 6.07361E+09
 -1       311-1.13515E+10-1.08761E+10 5.01787E+12 7.22402E+08 3.14227E+11 1.04780E+11
 -1       312 2.34557E+09 9.73631E+09 7.52816E+12-2.43400E+09 7.39822E+10-4.93392E+10
 -1       313-2.54800E+09-5.30748E+09 3.15281E+12 3.97162E+08 8.84175E+11 4.46014E+10
 -1       314-5.92748E+10-6.50571E+10 1.54380E+12 2.66897E+09 2.85772E+11 4.27585E+09
 -1       315-6.70731E+10-5.46500E+10 1.40219E+12 5.95665E+09 2.32497E+11 7.71188E+10
 -1       316-4.37949E+09-1.95361E+10 3.49073E+12 5.13641E+09 7.13327E+10-4.74652E+10
 -1       317-1.94922E+10-3.77270E+10 9.51912E+11 1.95011E+09 6.42162E+11 3.19084E+10
 -1       318-8.35524E+10-1.06860E+11-3.07402E+11 6.43639E+09 7.44298E+10 6.17252E+09
 -1       319-9.49276E+10-9.37319E+10-2.83101E+11 1.12740E+10 5.39090E+10 2.24194E+10
 -1       320-1.47786E+10-4.50229E+10 5.67111E+11 9.90265E+09 2.19601E+10-1.94246E+10
 -1       321-2.83663E+10-6.97886E+10-9.16608E+10 8.59824E+09 1.36566E+11 8.92737E+09
 -3
    1PSTEP                        11           1           1          
    1PGM                1.000000E+00                                  
    1PGK                9.976274E+08                                  
    1PHID                         -1                                  
    1PSUBC                         0                                  
    1PMODE                         3                                  
  100CL  103 5026.947094         321                     2    3MODAL      1
 -4  TOSTRAIN    6    1
 -5  EXX         1    4    1    1
 -5  EYY         1    4    2    2
 -5  EZZ         1    4    3    3
 -5  EXY         1    4    1    2
 -5  EYZ         1    4    2    3
 -5  EZX         1    4    3    1
 -1         1 2.86812E-04 3.12978E-04 7.32921E+01 3.20954E-07-1.21406E+01-1.50222E+01
 -1         2 4.92371E-05 4.35538E-05 1.07504E+01 6.56230E-07-2.26853E+00-2.81324E+00
 -1         3-2.51742E+00-1.87622E+00 7.63813E+00 1.32799E+00-1.83328E+01-1.73502E-01
 -1         4-1.33204E+01-1.47793E+01 4.70248E+01 1.86742E+00-2.89521E+00 2.59813E+00
 -1         5 2.38067E-04 2.69133E-04 5.87625E+01 1.20055E-07-1.53773E+01-4.15022E-01
 -1         6-4.59355E-15-5.49005E-14 5.95357E-14-9.89053E-15-7.79270E+00-1.42565E+00
 -1         7 1.43108E-13-2.93099E-13 7.58647E-14-2.03532E-13-1.49555E+01-2.73607E+00
 -1         8-1.02555E+01-1.37604E+01 4.17504E+01 2.42952E-01-9.48370E-01-3.35394E+00
 -1         9-3.30373E-04-3.47514E-04 4.05252E+01-2.79311E-05-6.66488E+00-9.00485E+00
 -1        10-2.42894E+00-2.87548E+00 9.72815E+00-2.51669E+00-8.46678E+00-1.02812E+00
 -1        11-7.90138E+00-6.13382E+00 2.67539E+01 1.44388E+00-1.06302E+01 1.11884E+00
 -1        12-1.84212E+01-1.57288E+01 6.17719E+01-2.83195E+00-3.82983E+00-3.12257E+00
 -1        13-3.40425E-04-3.29547E-04 6.59542E+01-1.90557E-05-1.42664E+01-7.59790E+00
 -1        14-5.37963E-05-5.12454E-05 5.11760E+00-1.39876E-05-5.53109E+00-2.01659E+00
 -1        15-8.69746E-01-9.33817E-01 3.73065E+00 6.46262E-03-1.64435E+01-1.45623E+00
 -1        16-1.13870E+01-1.42980E+01 4.44136E+01 4.96654E-01-1.74187E+00-4.48193E-01
 -1        17-2.80110E-04-2.94054E-04 2.79731E+01-2.55899E-06-1.10228E+01-1.01190E+00
 -1        18 2.10665E-14 7.74936E-14 5.07094E-14-1.29341E-14-1.00708E+01-1.84242E+00
 -1        19-5.10429E+00-4.75408E+00 2.03919E+01 1.18232E-03-7.95983E+00-3.00829E+00
 -1        20-1.57175E+01-1.32767E+01 5.31746E+01-4.60422E-01-5.61974E+00-1.54897E+00
 -1        21-8.10269E-02-2.87478E-01 8.42608E-01-3.97930E-01-1.56527E+01-7.01634E-01
 -1        22-1.53624E+00-8.03408E-01 5.34001E+00-3.19626E-01-4.37747E+00-3.41456E-02
 -1        23-1.62842E-13-4.79269E-13 3.35587E-13-3.21951E-13-1.30021E+01-2.37871E+00
 -1        24-1.57137E+00-4.42898E-01 4.60574E+00-7.28003E-02-3.83517E+00-2.86362E+00
 -1        25-1.44040E+00-1.11619E+00 3.80744E+00 4.74873E-01-1.26825E+01 4.67189E-02
 -1        26-8.43113E-01-9.05001E-01 3.38160E+00-3.07681E-01-1.03368E+01-4.96532E-01
 -1        27-7.82188E+00-8.95097E+00 2.51639E+01 5.76397E-01-6.79583E-01 6.16684E-01
 -1        28-1.23286E-01-1.50887E-01 4.78281E-01-5.26927E-02-1.37055E+01-1.61083E+00
 -1        29-1.61966E+00-6.05193E-01 5.02809E+00-1.04825E-02-3.52273E+00-1.23764E+00
 -1        30-1.78121E-14-4.67681E-14 1.43803E-13 2.27596E-14-1.02800E+01-1.88070E+00
 -1        31-8.24757E-01-6.73888E-01 2.61431E+00-9.63999E-03-8.80487E+00-2.50738E+00
 -1        32-6.10113E+00-7.87331E+00 2.08117E+01 8.68768E-02 2.55368E-01-2.32023E+00
 -1        33 1.23200E+00 1.26137E+00-4.30454E+00 7.36943E-02-1.22295E+01-5.53035E-01
 -1        34 8.11653E+00 7.94419E+00-2.76526E+01 1.00263E-01-3.55234E+00-7.67534E-02
 -1        35-1.23619E-12 3.25397E-12-7.15400E-15 2.55304E-13-1.02171E+01-1.86920E+00
 -1        36 6.89469E+00 6.73416E+00-2.35289E+01 1.34822E-02-3.02292E+00-2.23736E+00
 -1        37 5.79170E-01 5.17232E-01-1.75689E+00-1.08505E-01-1.06596E+01-5.50693E-02
 -1        38 4.65998E+00 4.61351E+00-1.56774E+01 8.54469E-02-8.05500E+00-4.07292E-01
 -1        39 3.44327E+00 3.53270E+00-1.12573E+01-9.83795E-02-8.86387E-01 4.86329E-01
 -1        40 6.22356E-01 6.27471E-01-2.10705E+00 2.22538E-02-1.08085E+01-1.24783E+00
 -1        41 7.50785E+00 7.35383E+00-2.56069E+01 4.74859E-02-2.90331E+00-9.79085E-01
 -1        42-6.82159E-13 8.89372E-13 1.64906E-13 3.76262E-13-8.34544E+00-1.52678E+00
 -1        43 3.42979E+00 3.40183E+00-1.15173E+01 4.07128E-03-6.82073E+00-1.97740E+00
 -1        44 2.82722E+00 3.16577E+00-9.60324E+00-1.98507E-02-3.01012E-01-1.95014E+00
 -1        45 2.37759E+00 2.33931E+00-7.95769E+00-4.83689E-02-7.34565E+00-3.31551E-01
 -1        46 1.51834E+01 1.51966E+01-5.12353E+01-1.80564E-02-2.12573E+00-4.11147E-02
 -1        47 1.04977E-12 8.58091E-13-2.50223E-13-1.40455E-13-6.14238E+00-1.12373E+00
 -1        48 1.27868E+01 1.29960E+01-4.34972E+01-8.84896E-03-1.81227E+00-1.34387E+00
 -1        49 1.81436E+00 1.84834E+00-6.16336E+00 6.61419E-02-7.51519E+00-2.27781E-02
 -1        50 8.75221E+00 8.60884E+00-2.92022E+01-1.78446E-02-4.85481E+00-2.43289E-01
 -1        51 1.19203E+01 1.16620E+01-3.96561E+01 9.92382E-02-5.67081E-01 3.61061E-01
 -1        52 1.16327E+00 1.16353E+00-3.91696E+00 1.83101E-02-6.48097E+00-7.53887E-01
 -1        53 1.39565E+01 1.41187E+01-4.73832E+01 3.49126E-02-1.72390E+00-5.92803E-01
 -1        54 8.48974E-14 7.85677E-13 7.38160E-14 6.73695E-13-5.90606E+00-1.08050E+00
 -1        55 6.35991E+00 6.35848E+00-2.14103E+01 3.34978E-03-4.12079E+00-1.18568E+00
 -1        56 1.01031E+01 9.91737E+00-3.36893E+01 1.21005E-02-1.24507E-01-1.37488E+00
 -1        57 2.85681E+00 2.83430E+00-9.60745E+00-1.90747E-02-1.69297E+00-7.78288E-02
 -1        58 1.83614E+01 1.83159E+01-6.18899E+01 1.16860E-02-4.98724E-01-1.62276E-02
 -1        59 1.48912E-13-2.72754E-13 3.93401E-13 4.73661E-13-1.41732E+00-2.59295E-01
 -1        60 1.54924E+01 1.56155E+01-5.25148E+01-3.48967E-03-4.25416E-01-3.09724E-01
 -1        61 2.62938E+00 2.64214E+00-8.82050E+00 2.64397E-02-3.46807E+00-1.19884E-02
 -1        62 1.05815E+01 1.04437E+01-3.53392E+01 8.39594E-03-1.12086E+00-5.87842E-02
 -1        63 1.70865E+01 1.68750E+01-5.68154E+01 6.61656E-02-2.61293E-01 1.64431E-01
 -1        64 1.40909E+00 1.41114E+00-4.73978E+00 2.20122E-02-1.49617E+00-1.73982E-01
 -1        65 1.69035E+01 1.69886E+01-5.72197E+01 4.07893E-02-4.07780E-01-1.40730E-01
 -1        66 9.26714E-13 2.10776E-13-5.24164E-14 5.73380E-13-2.72651E+00-4.98807E-01
 -1        67 7.71334E+00 7.70214E+00-2.59079E+01 4.02707E-03-9.50997E-01-2.73719E-01
 -1        68 1.44421E+01 1.43723E+01-4.82133E+01 4.83708E-03-6.55294E-02-6.34474E-01
 -1        69 2.73976E+00 2.71739E+00-9.19008E+00-2.25901E-02 3.56282E+00 1.61104E-01
 -1        70 1.76034E+01 1.75800E+01-5.92320E+01 2.02364E-03 1.03426E+00 1.50847E-02
 -1        71 8.87259E-14-1.82418E-12-2.59182E-13-8.15787E-13 2.97241E+00 5.43794E-01
 -1        72 1.48534E+01 1.49757E+01-5.02335E+01-4.13281E-03 8.80602E-01 6.51809E-01
 -1        73 2.80976E+00 2.82776E+00-9.43456E+00 3.55825E-02 7.37660E-01 1.60112E-03
 -1        74 1.01488E+01 1.00332E+01-3.38770E+01 5.25045E-04 2.35118E+00 1.18335E-01
 -1        75 1.82773E+01 1.80609E+01-6.07997E+01 7.25554E-02 5.71299E-02-4.34368E-02
 -1        76 1.35241E+00 1.35372E+00-4.54287E+00 1.75431E-02 3.14174E+00 3.64478E-01
 -1        77 1.62079E+01 1.62968E+01-5.47481E+01 3.20709E-02 8.39454E-01 2.77864E-01
 -1        78 4.65766E-13-9.08232E-13-1.56625E-13 1.92114E-13 5.70810E-01 1.04428E-01
 -1        79 7.39952E+00 7.39237E+00-2.48316E+01 3.20946E-03 1.99226E+00 5.74773E-01
 -1        80 1.54567E+01 1.53583E+01-5.15698E+01 6.50972E-03 8.75181E-03 1.34953E-01
 -1        81 2.10912E+00 2.09801E+00-7.06297E+00-1.17289E-02 7.23472E+00 3.27332E-01
 -1        82 1.35816E+01 1.35669E+01-4.55644E+01 1.63836E-03 2.10169E+00 3.26163E-02
 -1        83-2.08213E-12 3.72063E-13 1.40304E-13 1.13882E-12 6.04006E+00 1.10501E+00
 -1        84 1.14678E+01 1.15286E+01-3.86066E+01-2.14576E-03 1.78921E+00 1.32357E+00
 -1        85 2.43239E+00 2.44422E+00-8.15341E+00 2.28942E-02 4.18079E+00 1.28092E-02
 -1        86 7.83308E+00 7.77174E+00-2.61357E+01 5.66099E-04 4.77710E+00 2.39737E-01
 -1        87 1.57998E+01 1.56521E+01-5.25780E+01 4.84192E-02 3.21546E-01-2.13359E-01
 -1        88 1.04554E+00 1.04631E+00-3.50373E+00 9.07961E-03 6.38186E+00 7.40779E-01
 -1        89 1.25141E+01 1.25585E+01-4.20949E+01 1.73529E-02 1.70626E+00 5.69583E-01
 -1        90-9.24882E-13-8.96477E-13 9.99201E-14 7.68869E-13 3.26831E+00 5.97928E-01
 -1        91 5.71921E+00 5.71499E+00-1.91516E+01 1.66109E-03 4.04914E+00 1.16754E+00
 -1        92 1.33603E+01 1.32956E+01-4.45670E+01 4.18844E-03 7.00157E-02 7.64865E-01
 -1        93 1.20679E+00 1.20794E+00-4.00941E+00-1.33091E-03 8.29994E+00 3.73687E-01
 -1        94 7.80541E+00 7.81533E+00-2.59394E+01-1.82902E-03 2.39943E+00 3.75985E-02
 -1        95-1.79215E-12-6.82818E-13 5.26726E-13-3.87472E-13 6.92405E+00 1.26674E+00
 -1        96 6.60268E+00 6.59638E+00-2.19156E+01-2.43487E-04 2.04259E+00 1.51845E+00
 -1        97 1.65993E+00 1.66434E+00-5.54742E+00 7.18908E-03 6.01513E+00 1.79825E-02
 -1        98 4.50856E+00 4.52565E+00-1.50246E+01-2.45862E-03 5.47346E+00 2.76104E-01
 -1        99 1.07572E+01 1.07115E+01-3.58311E+01 1.50676E-02 4.57985E-01-3.05433E-01
 -1       100 6.05214E-01 6.04503E-01-2.01249E+00-3.84458E-03 7.31769E+00 8.48475E-01
 -1       101 7.20690E+00 7.20396E+00-2.39264E+01-4.47201E-03 1.94521E+00 6.48636E-01
 -1       102-2.26734E-12 7.19241E-13 3.65728E-13 9.88845E-13 4.70283E+00 8.60371E-01
 -1       103 3.30425E+00 3.30813E+00-1.10004E+01-7.03356E-04 4.63781E+00 1.33875E+00
 -1       104 9.09738E+00 9.07329E+00-3.03225E+01 1.31522E-03 9.82931E-02 1.10045E+00
 -1       105 3.54619E-01 3.75816E-01-1.13102E+00 1.35195E-02 6.00143E+00 2.74044E-01
 -1       106 2.39475E+00 2.43055E+00-7.52905E+00-1.65222E-02 1.76906E+00 2.64695E-02
 -1       107 4.14513E-12-2.22024E-13-3.71761E-13 2.89562E-12 5.00526E+00 9.15699E-01
 -1       108 2.05423E+00 1.93837E+00-6.18222E+00 2.47337E-03 1.49794E+00 1.09794E+00
 -1       109 7.76136E-01 7.70805E-01-2.56260E+00-1.13482E-02 5.54120E+00 1.78403E-02
 -1       110 1.39880E+00 1.51168E+00-4.61466E+00-1.20721E-02 3.97529E+00 1.97528E-01
 -1       111 4.97971E+00 5.07353E+00-1.66567E+01-3.17968E-02 4.41583E-01-2.93832E-01
 -1       112 1.93633E-01 1.93057E-01-6.10538E-01-2.01361E-02 5.29504E+00 6.14968E-01
 -1       113 2.24445E+00 2.16755E+00-6.85098E+00-3.68745E-02 1.43927E+00 4.77402E-01
 -1       114 1.16353E-12-1.58019E-13 9.33576E-14 6.85827E-13 4.32820E+00 7.91833E-01
 -1       115 1.05526E+00 1.05841E+00-3.33723E+00-3.68384E-03 3.36145E+00 9.68713E-01
 -1       116 4.21326E+00 4.24240E+00-1.40073E+01-2.07612E-03 9.75159E-02 1.01375E+00
 -1       117-2.05031E-02-8.83402E-03 1.76377E-01-4.44388E-02 1.08712E+00 7.14636E-02
 -1       118-1.93934E-01-4.96488E-02 1.19180E+00-3.98443E-02 4.60756E-01 3.82108E-02
 -1       119-1.41833E-12 3.86219E-12 6.65408E-13 1.28273E-12 8.46675E-01 1.54897E-01
 -1       120-4.82872E-02-1.12071E-01 9.64086E-01-8.12996E-03 3.90624E-01 1.98885E-01
 -1       121 1.43309E-01 1.36173E-01-4.17180E-01-3.85182E-02 2.52595E+00-1.63161E-05
 -1       122-9.55646E-02 1.60860E-01 2.96259E-01-5.32272E-02 8.45406E-01 5.52647E-02
 -1       123 8.16214E-01 1.00344E+00-2.78596E+00-6.13021E-02 1.35944E-01-1.20248E-01
 -1       124 1.97087E-02-1.76652E-03 2.62737E-02-7.07342E-02 8.70000E-01 1.25780E-01
 -1       125-8.62963E-02-9.36982E-02 1.07859E+00-6.97915E-02 3.33722E-01 1.38787E-01
 -1       126 1.23888E-12 7.27494E-13 7.02832E-14 2.28502E-12 1.93918E+00 3.54768E-01
 -1       127-9.65590E-03 1.07729E-01 1.43614E-01-1.29406E-02 6.87519E-01 1.59164E-01
 -1       128 7.44331E-01 7.83332E-01-2.28033E+00-7.04681E-03-8.91846E-05 4.62116E-01
 -1       129 1.88194E-04 2.26077E-04 5.06223E+01-2.21681E-07-7.29456E+00 1.14666E+01
 -1       130-4.92371E-05-4.35538E-05-1.07504E+01-6.56230E-07-2.26853E+00-2.81324E+00
 -1       131 2.51742E+00 1.87622E+00-7.63813E+00-1.32799E+00-1.83328E+01-1.73502E-01
 -1       132-8.64801E+00-1.07602E+01 3.24796E+01-1.28981E+00-4.07929E+00-3.87410E+00
 -1       133-2.32446E-04-2.27302E-04 5.51806E+01 9.80173E-06-1.18455E+01 5.60102E+00
 -1       134 5.37963E-05 5.12454E-05-5.11760E+00 1.39876E-05-5.53109E+00-2.01659E+00
 -1       135 8.69746E-01 9.33817E-01-3.73065E+00-6.46262E-03-1.64435E+01-1.45623E+00
 -1       136-9.85355E+00-1.22970E+01 3.73615E+01 1.55508E-02-2.28605E+00-3.54499E+00
 -1       137-2.28499E-04-2.42709E-04 1.83639E+01 2.26517E-05-4.25017E+00 4.22775E+00
 -1       138 2.42894E+00 2.87548E+00-9.72815E+00 2.51669E+00-8.46678E+00-1.02812E+00
 -1       139-3.03590E+00-2.24792E+00 1.17934E+01-1.35586E+00-1.11968E+01-1.85573E+00
 -1       140-1.37426E+01-9.84449E+00 4.26654E+01 1.95601E+00-2.91298E+00 1.88899E+00
 -1       141 8.10269E-02 2.87478E-01-8.42608E-01 3.97930E-01-1.56527E+01-7.01634E-01
 -1       142-1.33850E+00-2.77482E-01 3.68831E+00 2.20763E-01-4.66771E+00-1.62065E+00
 -1       143 1.23286E-01 1.50887E-01-4.78281E-01 5.26927E-02-1.37055E+01-1.61083E+00
 -1       144-1.38923E+00-3.27934E-01 4.09617E+00-1.05269E-01-3.57873E+00-2.58979E+00
 -1       145 1.44040E+00 1.11619E+00-3.80744E+00-4.74873E-01-1.26825E+01 4.67189E-02
 -1       146-6.72400E-01-3.54531E-01 1.71234E+00 3.25022E-01-1.05841E+01-8.02661E-01
 -1       147-4.97508E+00-6.60980E+00 1.73805E+01-3.98113E-01-9.60105E-01-9.16661E-01
 -1       148-1.23200E+00-1.26137E+00 4.30454E+00-7.36943E-02-1.22295E+01-5.53035E-01
 -1       149 5.67127E+00 5.42175E+00-1.90994E+01-6.92511E-02-3.76931E+00-1.26272E+00
 -1       150-6.22356E-01-6.27471E-01 2.10705E+00-2.22538E-02-1.08085E+01-1.24783E+00
 -1       151 6.28131E+00 6.09904E+00-2.14454E+01-1.84274E-02-2.95020E+00-2.00245E+00
 -1       152-5.79170E-01-5.17232E-01 1.75689E+00 1.08505E-01-1.06596E+01-5.50693E-02
 -1       153 2.19881E+00 2.09082E+00-7.06928E+00-7.33882E-02-8.24222E+00-6.63592E-01
 -1       154 2.34438E+00 2.47387E+00-7.77531E+00 6.79500E-02-1.13188E+00-8.55566E-01
 -1       155-2.37759E+00-2.33931E+00 7.95769E+00 4.83689E-02-7.34565E+00-3.31551E-01
 -1       156 1.04821E+01 1.05011E+01-3.53878E+01 1.24714E-02-2.25739E+00-7.60764E-01
 -1       157-1.16327E+00-1.16353E+00 3.91696E+00-1.83101E-02-6.48097E+00-7.53887E-01
 -1       158 1.16641E+01 1.17832E+01-3.96100E+01-4.40860E-02-1.75119E+00-1.20400E+00
 -1       159-1.81436E+00-1.84834E+00 6.16336E+00-6.61419E-02-7.51519E+00-2.27781E-02
 -1       160 4.01354E+00 3.92161E+00-1.32870E+01 3.22972E-02-4.96663E+00-3.92468E-01
 -1       161 8.33107E+00 7.95703E+00-2.73902E+01-6.85431E-02-7.43041E-01-6.00744E-01
 -1       162-2.85681E+00-2.83430E+00 9.60745E+00 1.90747E-02-1.69297E+00-7.78288E-02
 -1       163 1.26993E+01 1.26335E+01-4.27469E+01-8.07143E-03-5.27121E-01-1.71448E-01
 -1       164-1.40909E+00-1.41114E+00 4.73978E+00-2.20122E-02-1.49617E+00-1.73982E-01
 -1       165 1.41206E+01 1.41594E+01-4.78044E+01-4.04358E-02-4.13768E-01-2.73840E-01
 -1       166-2.62938E+00-2.64214E+00 8.82050E+00-2.64397E-02-3.46807E+00-1.19884E-02
 -1       167 4.88308E+00 4.76793E+00-1.61254E+01 6.46397E-03-1.14521E+00-9.15157E-02
 -1       168 1.18815E+01 1.15754E+01-3.92420E+01-4.57001E-02-3.41637E-01-2.74736E-01
 -1       169-2.73976E+00-2.71739E+00 9.19008E+00 2.25901E-02 3.56282E+00 1.61104E-01
 -1       170 1.21674E+01 1.21335E+01-4.09111E+01-1.39771E-03 1.10018E+00 3.75407E-01
 -1       171-1.35241E+00-1.35372E+00 4.54287E+00-1.75431E-02 3.14174E+00 3.64478E-01
 -1       172 1.35322E+01 1.35835E+01-4.57151E+01-3.40933E-02 8.52795E-01 5.92967E-01
 -1       173-2.80976E+00-2.82776E+00 9.43456E+00-3.55825E-02 7.37660E-01 1.60112E-03
 -1       174 4.68227E+00 4.59236E+00-1.54976E+01 1.15795E-02 2.40883E+00 1.91258E-01
 -1       175 1.27059E+01 1.23926E+01-4.19939E+01-5.01135E-02 7.75302E-02 6.80725E-02
 -1       176-2.10912E+00-2.09801E+00 7.06297E+00 1.17289E-02 7.23472E+00 3.27332E-01
 -1       177 9.38621E+00 9.36504E+00-3.14710E+01-1.13160E-03 2.23490E+00 7.60750E-01
 -1       178-1.04554E+00-1.04631E+00 3.50373E+00-9.07961E-03 6.38186E+00 7.40779E-01
 -1       179 1.04387E+01 1.04629E+01-3.51162E+01-1.83404E-02 1.73367E+00 1.19941E+00
 -1       180-2.43239E+00-2.44422E+00 8.15341E+00-2.28942E-02 4.18079E+00 1.28092E-02
 -1       181 3.62138E+00 3.57259E+00-1.20102E+01 5.96391E-03 4.89233E+00 3.89589E-01
 -1       182 1.09687E+01 1.07549E+01-3.63152E+01-3.34428E-02 4.24586E-01 3.49862E-01
 -1       183-1.20679E+00-1.20794E+00 4.00941E+00 1.33091E-03 8.29994E+00 3.73687E-01
 -1       184 5.38739E+00 5.40174E+00-1.79162E+01 1.26329E-03 2.55138E+00 8.68140E-01
 -1       185-6.05214E-01-6.04503E-01 2.01249E+00 3.84458E-03 7.31769E+00 8.48475E-01
 -1       186 5.99278E+00 5.99610E+00-1.98957E+01 3.85098E-03 1.97541E+00 1.37850E+00
 -1       187-1.65993E+00-1.66434E+00 5.54742E+00-7.18908E-03 6.01513E+00 1.79825E-02
 -1       188 2.09365E+00 2.11080E+00-7.00748E+00 9.35955E-04 5.60699E+00 4.41163E-01
 -1       189 7.44727E+00 7.38103E+00-2.47483E+01-1.04071E-02 6.05330E-01 4.99964E-01
 -1       190-3.54619E-01-3.75816E-01 1.13102E+00-1.35195E-02 6.00143E+00 2.74044E-01
 -1       191 1.64049E+00 1.69231E+00-5.20026E+00 1.14118E-02 1.88156E+00 6.41403E-01
 -1       192-1.93633E-01-1.93057E-01 6.10538E-01 2.01361E-02 5.29504E+00 6.14968E-01
 -1       193 1.82763E+00 1.78813E+00-5.57851E+00 3.48582E-02 1.46417E+00 9.94439E-01
 -1       194-7.76136E-01-7.70805E-01 2.56260E+00 1.13482E-02 5.54120E+00 1.78403E-02
 -1       195 6.75119E-01 7.66705E-01-2.34071E+00-1.05123E-03 4.06988E+00 3.33647E-01
 -1       196 3.40393E+00 3.53977E+00-1.15047E+01 2.19618E-02 5.83401E-01 4.81350E-01
 -1       197 2.05031E-02 8.83402E-03-1.76377E-01 4.44388E-02 1.08712E+00 7.14636E-02
 -1       198-1.88570E-01 2.03294E-02 8.23168E-01 2.75202E-02 4.78201E-01 1.33569E-01
 -1       199-1.97087E-02 1.76652E-03-2.62737E-02 7.07342E-02 8.70000E-01 1.25780E-01
 -1       200-1.53169E-01-6.40100E-02 1.04113E+00 5.44751E-02 3.35914E-01 1.71642E-01
 -1       201-1.43309E-01-1.36173E-01 4.17180E-01 3.85182E-02 2.52595E+00-1.63161E-05
 -1       202-6.67123E-02 2.04669E-01-9.15380E-02 3.04929E-02 8.51417E-01 6.72435E-02
 -1       203 4.92875E-01 7.63946E-01-1.92424E+00 4.23409E-02 1.90880E-01 1.80039E-01
 -1       204-1.88194E-04-2.26077E-04-5.06223E+01 2.21681E-07-7.29456E+00 1.14666E+01
 -1       205 8.64801E+00 1.07602E+01-3.24796E+01 1.28981E+00-4.07929E+00-3.87410E+00
 -1       206-2.38067E-04-2.69133E-04-5.87625E+01-1.20055E-07-1.53773E+01-4.15022E-01
 -1       207 1.02555E+01 1.37604E+01-4.17504E+01-2.42952E-01-9.48370E-01-3.35394E+00
 -1       208 2.28499E-04 2.42709E-04-1.83639E+01-2.26517E-05-4.25017E+00 4.22775E+00
 -1       209 1.37426E+01 9.84449E+00-4.26654E+01-1.95601E+00-2.91298E+00 1.88899E+00
 -1       210 3.03590E+00 2.24792E+00-1.17934E+01 1.35586E+00-1.11968E+01-1.85573E+00
 -1       211 2.32446E-04 2.27302E-04-5.51806E+01-9.80173E-06-1.18455E+01 5.60102E+00
 -1       212 9.85355E+00 1.22970E+01-3.73615E+01-1.55508E-02-2.28605E+00-3.54499E+00
 -1       213 2.80110E-04 2.94054E-04-2.79731E+01 2.55899E-06-1.10228E+01-1.01190E+00
 -1       214 1.57175E+01 1.32767E+01-5.31746E+01 4.60422E-01-5.61974E+00-1.54897E+00
 -1       215 5.10429E+00 4.75408E+00-2.03919E+01-1.18232E-03-7.95983E+00-3.00829E+00
 -1       216 1.33850E+00 2.77482E-01-3.68831E+00-2.20763E-01-4.66771E+00-1.62065E+00
 -1       217 1.57137E+00 4.42898E-01-4.60574E+00 7.28003E-02-3.83517E+00-2.86362E+00
 -1       218 4.97508E+00 6.60980E+00-1.73805E+01 3.98113E-01-9.60105E-01-9.16661E-01
 -1       219 6.72400E-01 3.54531E-01-1.71234E+00-3.25022E-01-1.05841E+01-8.02661E-01
 -1       220 1.38923E+00 3.27934E-01-4.09617E+00 1.05269E-01-3.57873E+00-2.58979E+00
 -1       221 6.10113E+00 7.87331E+00-2.08117E+01-8.68768E-02 2.55368E-01-2.32023E+00
 -1       222 8.24757E-01 6.73888E-01-2.61431E+00 9.63999E-03-8.80487E+00-2.50738E+00
 -1       223-5.67127E+00-5.42175E+00 1.90994E+01 6.92511E-02-3.76931E+00-1.26272E+00
 -1       224-6.89469E+00-6.73416E+00 2.35289E+01-1.34822E-02-3.02292E+00-2.23736E+00
 -1       225-2.34438E+00-2.47387E+00 7.77531E+00-6.79500E-02-1.13188E+00-8.55566E-01
 -1       226-2.19881E+00-2.09082E+00 7.06928E+00 7.33882E-02-8.24222E+00-6.63592E-01
 -1       227-6.28131E+00-6.09904E+00 2.14454E+01 1.84274E-02-2.95020E+00-2.00245E+00
 -1       228-2.82722E+00-3.16577E+00 9.60324E+00 1.98507E-02-3.01012E-01-1.95014E+00
 -1       229-3.42979E+00-3.40183E+00 1.15173E+01-4.07128E-03-6.82073E+00-1.97740E+00
 -1       230-1.04821E+01-1.05011E+01 3.53878E+01-1.24714E-02-2.25739E+00-7.60764E-01
 -1       231-1.27868E+01-1.29960E+01 4.34972E+01 8.84896E-03-1.81227E+00-1.34387E+00
 -1       232-8.33107E+00-7.95703E+00 2.73902E+01 6.85431E-02-7.43041E-01-6.00744E-01
 -1       233-4.01354E+00-3.92161E+00 1.32870E+01-3.22972E-02-4.96663E+00-3.92468E-01
 -1       234-1.16641E+01-1.17832E+01 3.96100E+01 4.40860E-02-1.75119E+00-1.20400E+00
 -1       235-1.01031E+01-9.91737E+00 3.36893E+01-1.21005E-02-1.24507E-01-1.37488E+00
 -1       236-6.35991E+00-6.35848E+00 2.14103E+01-3.34978E-03-4.12079E+00-1.18568E+00
 -1       237-1.26993E+01-1.26335E+01 4.27469E+01 8.07143E-03-5.27121E-01-1.71448E-01
 -1       238-1.54924E+01-1.56155E+01 5.25148E+01 3.48967E-03-4.25416E-01-3.09724E-01
 -1       239-1.18815E+01-1.15754E+01 3.92420E+01 4.57001E-02-3.41637E-01-2.74736E-01
 -1       240-4.88308E+00-4.76793E+00 1.61254E+01-6.46397E-03-1.14521E+00-9.15157E-02
 -1       241-1.41206E+01-1.41594E+01 4.78044E+01 4.04358E-02-4.13768E-01-2.73840E-01
 -1       242-1.44421E+01-1.43723E+01 4.82133E+01-4.83708E-03-6.55294E-02-6.34474E-01
 -1       243-7.71334E+00-7.70214E+00 2.59079E+01-4.02707E-03-9.50997E-01-2.73719E-01
 -1       244-1.21674E+01-1.21335E+01 4.09111E+01 1.39771E-03 1.10018E+00 3.75407E-01
 -1       245-1.48534E+01-1.49757E+01 5.02335E+01 4.13281E-03 8.80602E-01 6.51809E-01
 -1       246-1.27059E+01-1.23926E+01 4.19939E+01 5.01135E-02 7.75302E-02 6.80725E-02
 -1       247-4.68227E+00-4.59236E+00 1.54976E+01-1.15795E-02 2.40883E+00 1.91258E-01
 -1       248-1.35322E+01-1.35835E+01 4.57151E+01 3.40933E-02 8.52795E-01 5.92967E-01
 -1       249-1.54567E+01-1.53583E+01 5.15698E+01-6.50972E-03 8.75181E-03 1.34953E-01
 -1       250-7.39952E+00-7.39237E+00 2.48316E+01-3.20946E-03 1.99226E+00 5.74773E-01
 -1       251-9.38621E+00-9.36504E+00 3.14710E+01 1.13160E-03 2.23490E+00 7.60750E-01
 -1       252-1.14678E+01-1.15286E+01 3.86066E+01 2.14576E-03 1.78921E+00 1.32357E+00
 -1       253-1.09687E+01-1.07549E+01 3.63152E+01 3.34428E-02 4.24586E-01 3.49862E-01
 -1       254-3.62138E+00-3.57259E+00 1.20102E+01-5.96391E-03 4.89233E+00 3.89589E-01
 -1       255-1.04387E+01-1.04629E+01 3.51162E+01 1.83404E-02 1.73367E+00 1.19941E+00
 -1       256-1.33603E+01-1.32956E+01 4.45670E+01-4.18844E-03 7.00157E-02 7.64865E-01
 -1       257-5.71921E+00-5.71499E+00 1.91516E+01-1.66109E-03 4.04914E+00 1.16754E+00
 -1       258-5.38739E+00-5.40174E+00 1.79162E+01-1.26329E-03 2.55138E+00 8.68140E-01
 -1       259-6.60268E+00-6.59638E+00 2.19156E+01 2.43487E-04 2.04259E+00 1.51845E+00
 -1       260-7.44727E+00-7.38103E+00 2.47483E+01 1.04071E-02 6.05330E-01 4.99964E-01
 -1       261-2.09365E+00-2.11080E+00 7.00748E+00-9.35955E-04 5.60699E+00 4.41163E-01
 -1       262-5.99278E+00-5.99610E+00 1.98957E+01-3.85098E-03 1.97541E+00 1.37850E+00
 -1       263-9.09738E+00-9.07329E+00 3.03225E+01-1.31522E-03 9.82931E-02 1.10045E+00
 -1       264-3.30425E+00-3.30813E+00 1.10004E+01 7.03356E-04 4.63781E+00 1.33875E+00
 -1       265-1.64049E+00-1.69231E+00 5.20026E+00-1.14118E-02 1.88156E+00 6.41403E-01
 -1       266-2.05423E+00-1.93837E+00 6.18222E+00-2.47337E-03 1.49794E+00 1.09794E+00
 -1       267-3.40393E+00-3.53977E+00 1.15047E+01-2.19618E-02 5.83401E-01 4.81350E-01
 -1       268-6.75119E-01-7.66705E-01 2.34071E+00 1.05123E-03 4.06988E+00 3.33647E-01
 -1       269-1.82763E+00-1.78813E+00 5.57851E+00-3.48582E-02 1.46417E+00 9.94439E-01
 -1       270-4.21326E+00-4.24240E+00 1.40073E+01 2.07612E-03 9.75159E-02 1.01375E+00
 -1       271-1.05526E+00-1.05841E+00 3.33723E+00 3.68384E-03 3.36145E+00 9.68713E-01
 -1       272 1.88570E-01-2.03294E-02-8.23168E-01-2.75202E-02 4.78201E-01 1.33569E-01
 -1       273 4.82872E-02 1.12071E-01-9.64086E-01 8.12996E-03 3.90624E-01 1.98885E-01
 -1       274-4.92875E-01-7.63946E-01 1.92424E+00-4.23409E-02 1.90880E-01 1.80039E-01
 -1       275 6.67123E-02-2.04669E-01 9.15380E-02-3.04929E-02 8.51417E-01 6.72435E-02
 -1       276 1.53169E-01 6.40100E-02-1.04113E+00-5.44751E-02 3.35914E-01 1.71642E-01
 -1       277-7.44331E-01-7.83332E-01 2.28033E+00 7.04681E-03-8.91846E-05 4.62116E-01
 -1       278 9.65590E-03-1.07729E-01-1.43614E-01 1.29406E-02 6.87519E-01 1.59164E-01
 -1       279-2.86812E-04-3.12978E-04-7.32921E+01-3.20954E-07-1.21406E+01-1.50222E+01
 -1       280 1.33204E+01 1.47793E+01-4.70248E+01-1.86742E+00-2.89521E+00 2.59813E+00
 -1       281 3.40425E-04 3.29547E-04-6.59542E+01 1.90557E-05-1.42664E+01-7.59790E+00
 -1       282 1.13870E+01 1.42980E+01-4.44136E+01-4.96654E-01-1.74187E+00-4.48193E-01
 -1       283 3.30373E-04 3.47514E-04-4.05252E+01 2.79311E-05-6.66488E+00-9.00485E+00
 -1       284 1.84212E+01 1.57288E+01-6.17719E+01 2.83195E+00-3.82983E+00-3.12257E+00
 -1       285 7.90138E+00 6.13382E+00-2.67539E+01-1.44388E+00-1.06302E+01 1.11884E+00
 -1       286 1.53624E+00 8.03408E-01-5.34001E+00 3.19626E-01-4.37747E+00-3.41456E-02
 -1       287 1.61966E+00 6.05193E-01-5.02809E+00 1.04825E-02-3.52273E+00-1.23764E+00
 -1       288 7.82188E+00 8.95097E+00-2.51639E+01-5.76397E-01-6.79583E-01 6.16684E-01
 -1       289 8.43113E-01 9.05001E-01-3.38160E+00 3.07681E-01-1.03368E+01-4.96532E-01
 -1       290-8.11653E+00-7.94419E+00 2.76526E+01-1.00263E-01-3.55234E+00-7.67534E-02
 -1       291-7.50785E+00-7.35383E+00 2.56069E+01-4.74859E-02-2.90331E+00-9.79085E-01
 -1       292-3.44327E+00-3.53270E+00 1.12573E+01 9.83795E-02-8.86387E-01 4.86329E-01
 -1       293-4.65998E+00-4.61351E+00 1.56774E+01-8.54469E-02-8.05500E+00-4.07292E-01
 -1       294-1.51834E+01-1.51966E+01 5.12353E+01 1.80564E-02-2.12573E+00-4.11147E-02
 -1       295-1.39565E+01-1.41187E+01 4.73832E+01-3.49126E-02-1.72390E+00-5.92803E-01
 -1       296-1.19203E+01-1.16620E+01 3.96561E+01-9.92382E-02-5.67081E-01 3.61061E-01
 -1       297-8.75221E+00-8.60884E+00 2.92022E+01 1.78446E-02-4.85481E+00-2.43289E-01
 -1       298-1.83614E+01-1.83159E+01 6.18899E+01-1.16860E-02-4.98724E-01-1.62276E-02
 -1       299-1.69035E+01-1.69886E+01 5.72197E+01-4.07893E-02-4.07780E-01-1.40730E-01
 -1       300-1.70865E+01-1.68750E+01 5.68154E+01-6.61656E-02-2.61293E-01 1.64431E-01
 -1       301-1.05815E+01-1.04437E+01 3.53392E+01-8.39594E-03-1.12086E+00-5.87842E-02
 -1       302-1.76034E+01-1.75800E+01 5.92320E+01-2.02364E-03 1.03426E+00 1.50847E-02
 -1       303-1.62079E+01-1.62968E+01 5.47481E+01-3.20709E-02 8.39454E-01 2.77864E-01
 -1       304-1.82773E+01-1.80609E+01 6.07997E+01-7.25554E-02 5.71299E-02-4.34368E-02
 -1       305-1.01488E+01-1.00332E+01 3.38770E+01-5.25045E-04 2.35118E+00 1.18335E-01
 -1       306-1.35816E+01-1.35669E+01 4.55644E+01-1.63836E-03 2.10169E+00 3.26163E-02
 -1       307-1.25141E+01-1.25585E+01 4.20949E+01-1.73529E-02 1.70626E+00 5.69583E-01
 -1       308-1.57998E+01-1.56521E+01 5.25780E+01-4.84192E-02 3.21546E-01-2.13359E-01
 -1       309-7.83308E+00-7.77174E+00 2.61357E+01-5.66099E-04 4.77710E+00 2.39737E-01
 -1       310-7.80541E+00-7.81533E+00 2.59394E+01 1.82902E-03 2.39943E+00 3.75985E-02
 -1       311-7.20690E+00-7.20396E+00 2.39264E+01 4.47201E-03 1.94521E+00 6.48636E-01
 -1       312-1.07572E+01-1.07115E+01 3.58311E+01-1.50676E-02 4.57985E-01-3.05433E-01
 -1       313-4.50856E+00-4.52565E+00 1.50246E+01 2.45862E-03 5.47346E+00 2.76104E-01
 -1       314-2.39475E+00-2.43055E+00 7.52905E+00 1.65222E-02 1.76906E+00 2.64695E-02
 -1       315-2.24445E+00-2.16755E+00 6.85098E+00 3.68745E-02 1.43927E+00 4.77402E-01
 -1       316-4.97971E+00-5.07353E+00 1.66567E+01 3.17968E-02 4.41583E-01-2.93832E-01
 -1       317-1.39880E+00-1.51168E+00 4.61466E+00 1.20721E-02 3.97529E+00 1.97528E-01
 -1       318 1.93934E-01 4.96488E-02-1.19180E+00 3.98443E-02 4.60756E-01 3.82108E-02
 -1       319 8.62963E-02 9.36982E-02-1.07859E+00 6.97915E-02 3.33722E-01 1.38787E-01
 -1       320-8.16214E-01-1.00344E+00 2.78596E+00 6.13021E-02 1.35944E-01-1.20248E-01
 -1       321 9.55646E-02-1.60860E-01-2.96259E-01 5.32272E-02 8.45406E-01 5.52647E-02
 -3
    1PSTEP                        12           1           1          
    1PGM                1.000000E+00                                  
    1PGK                9.976274E+08                                  
    1PHID                         -1                                  
    1PSUBC                         0                                  
    1PMODE                         3                                  
  100CL  103 5026.947094         321                     2    3MODAL      1
 -4  ERROR       1    1
 -5  STR(%)      1    1    0    0
 -1         1 1.91171E+01
 -1         2 2.21015E+01
 -1         3 2.21015E+01
 -1         4 1.91171E+01
 -1         5 2.21015E+01
 -1         6 2.21015E+01
 -1         7 2.21015E+01
 -1         8 2.21015E+01
 -1         9 2.06094E+01
 -1        10 2.21015E+01
 -1        11 2.06094E+01
 -1        12 1.91171E+01
 -1        13 2.06094E+01
 -1        14 2.21015E+01
 -1        15 2.21015E+01
 -1        16 2.06094E+01
 -1        17 2.21015E+01
 -1        18 2.21015E+01
 -1        19 2.21015E+01
 -1        20 2.21015E+01
 -1        21 1.87293E+01
 -1        22 1.87293E+01
 -1        23 1.87293E+01
 -1        24 1.87293E+01
 -1        25 2.04154E+01
 -1        26 1.87293E+01
 -1        27 1.89232E+01
 -1        28 1.87293E+01
 -1        29 1.87293E+01
 -1        30 2.04154E+01
 -1        31 1.87293E+01
 -1        32 2.04154E+01
 -1        33 1.87293E+01
 -1        34 1.87293E+01
 -1        35 1.87293E+01
 -1        36 1.87293E+01
 -1        37 1.87293E+01
 -1        38 1.87293E+01
 -1        39 1.87293E+01
 -1        40 1.87293E+01
 -1        41 1.87293E+01
 -1        42 1.87293E+01
 -1        43 1.87293E+01
 -1        44 1.87293E+01
 -1        45 2.13344E+01
 -1        46 1.83481E+01
 -1        47 2.13344E+01
 -1        48 2.13344E+01
 -1        49 2.00319E+01
 -1        50 1.98413E+01
 -1        51 1.85387E+01
 -1        52 2.13344E+01
 -1        53 1.98413E+01
 -1        54 2.00319E+01
 -1        55 2.13344E+01
 -1        56 2.00319E+01
 -1        57 2.17580E+01
 -1        58 1.84542E+01
 -1        59 2.17580E+01
 -1        60 2.17580E+01
 -1        61 2.15462E+01
 -1        62 2.01061E+01
 -1        63 1.84012E+01
 -1        64 2.17580E+01
 -1        65 2.01061E+01
 -1        66 2.15462E+01
 -1        67 2.17580E+01
 -1        68 2.15462E+01
 -1        69 2.17580E+01
 -1        70 1.84542E+01
 -1        71 2.17580E+01
 -1        72 2.17580E+01
 -1        73 2.17580E+01
 -1        74 2.01061E+01
 -1        75 1.84542E+01
 -1        76 2.17580E+01
 -1        77 2.01061E+01
 -1        78 2.17580E+01
 -1        79 2.17580E+01
 -1        80 2.17580E+01
 -1        81 2.07137E+01
 -1        82 1.82485E+01
 -1        83 2.07137E+01
 -1        84 2.07137E+01
 -1        85 2.12359E+01
 -1        86 1.94811E+01
 -1        87 1.83514E+01
 -1        88 2.07137E+01
 -1        89 1.94811E+01
 -1        90 2.12359E+01
 -1        91 2.07137E+01
 -1        92 2.12359E+01
 -1        93 1.89215E+01
 -1        94 1.75591E+01
 -1        95 1.89215E+01
 -1        96 1.89215E+01
 -1        97 1.98176E+01
 -1        98 1.82403E+01
 -1        99 1.79038E+01
 -1       100 1.89215E+01
 -1       101 1.82403E+01
 -1       102 1.98176E+01
 -1       103 1.89215E+01
 -1       104 1.98176E+01
 -1       105 2.21395E+01
 -1       106 2.19616E+01
 -1       107 2.21395E+01
 -1       108 2.21395E+01
 -1       109 2.05305E+01
 -1       110 2.20505E+01
 -1       111 1.97604E+01
 -1       112 2.21395E+01
 -1       113 2.20505E+01
 -1       114 2.05305E+01
 -1       115 2.21395E+01
 -1       116 2.05305E+01
 -1       117 2.21395E+01
 -1       118 2.19616E+01
 -1       119 2.21395E+01
 -1       120 2.21395E+01
 -1       121 2.21395E+01
 -1       122 2.20505E+01
 -1       123 2.19616E+01
 -1       124 2.21395E+01
 -1       125 2.20505E+01
 -1       126 2.21395E+01
 -1       127 2.21395E+01
 -1       128 2.21395E+01
 -1       129 2.21015E+01
 -1       130 2.21015E+01
 -1       131 2.21015E+01
 -1       132 2.21015E+01
 -1       133 2.21015E+01
 -1       134 2.21015E+01
 -1       135 2.21015E+01
 -1       136 2.21015E+01
 -1       137 2.21015E+01
 -1       138 2.21015E+01
 -1       139 2.21015E+01
 -1       140 2.21015E+01
 -1       141 1.87293E+01
 -1       142 1.74611E+01
 -1       143 1.87293E+01
 -1       144 1.80952E+01
 -1       145 2.04154E+01
 -1       146 1.80952E+01
 -1       147 1.97813E+01
 -1       148 1.87293E+01
 -1       149 1.85633E+01
 -1       150 1.87293E+01
 -1       151 1.86463E+01
 -1       152 1.87293E+01
 -1       153 1.86463E+01
 -1       154 1.80122E+01
 -1       155 2.13344E+01
 -1       156 2.13344E+01
 -1       157 2.13344E+01
 -1       158 2.13344E+01
 -1       159 2.00319E+01
 -1       160 2.13344E+01
 -1       161 1.99488E+01
 -1       162 2.17580E+01
 -1       163 2.17580E+01
 -1       164 2.17580E+01
 -1       165 2.17580E+01
 -1       166 2.15462E+01
 -1       167 2.17580E+01
 -1       168 2.15462E+01
 -1       169 2.17580E+01
 -1       170 2.17580E+01
 -1       171 2.17580E+01
 -1       172 2.17580E+01
 -1       173 2.17580E+01
 -1       174 2.17580E+01
 -1       175 2.17580E+01
 -1       176 2.07137E+01
 -1       177 2.07137E+01
 -1       178 2.07137E+01
 -1       179 2.07137E+01
 -1       180 2.12359E+01
 -1       181 2.07137E+01
 -1       182 2.12359E+01
 -1       183 1.89215E+01
 -1       184 1.89215E+01
 -1       185 1.89215E+01
 -1       186 1.89215E+01
 -1       187 1.98176E+01
 -1       188 1.89215E+01
 -1       189 1.98176E+01
 -1       190 2.21395E+01
 -1       191 2.21395E+01
 -1       192 2.21395E+01
 -1       193 2.21395E+01
 -1       194 2.05305E+01
 -1       195 2.21395E+01
 -1       196 2.05305E+01
 -1       197 2.21395E+01
 -1       198 2.21395E+01
 -1       199 2.21395E+01
 -1       200 2.21395E+01
 -1       201 2.21395E+01
 -1       202 2.21395E+01
 -1       203 2.21395E+01
 -1       204 2.21015E+01
 -1       205 2.21015E+01
 -1       206 2.21015E+01
 -1       207 2.21015E+01
 -1       208 2.21015E+01
 -1       209 2.21015E+01
 -1       210 2.21015E+01
 -1       211 2.21015E+01
 -1       212 2.21015E+01
 -1       213 2.21015E+01
 -1       214 2.21015E+01
 -1       215 2.21015E+01
 -1       216 1.74611E+01
 -1       217 1.87293E+01
 -1       218 1.97813E+01
 -1       219 1.80952E+01
 -1       220 1.80952E+01
 -1       221 2.04154E+01
 -1       222 1.87293E+01
 -1       223 1.85633E+01
 -1       224 1.87293E+01
 -1       225 1.80122E+01
 -1       226 1.86463E+01
 -1       227 1.86463E+01
 -1       228 1.87293E+01
 -1       229 1.87293E+01
 -1       230 2.13344E+01
 -1       231 2.13344E+01
 -1       232 1.99488E+01
 -1       233 2.13344E+01
 -1       234 2.13344E+01
 -1       235 2.00319E+01
 -1       236 2.13344E+01
 -1       237 2.17580E+01
 -1       238 2.17580E+01
 -1       239 2.15462E+01
 -1       240 2.17580E+01
 -1       241 2.17580E+01
 -1       242 2.15462E+01
 -1       243 2.17580E+01
 -1       244 2.17580E+01
 -1       245 2.17580E+01
 -1       246 2.17580E+01
 -1       247 2.17580E+01
 -1       248 2.17580E+01
 -1       249 2.17580E+01
 -1       250 2.17580E+01
 -1       251 2.07137E+01
 -1       252 2.07137E+01
 -1       253 2.12359E+01
 -1       254 2.07137E+01
 -1       255 2.07137E+01
 -1       256 2.12359E+01
 -1       257 2.07137E+01
 -1       258 1.89215E+01
 -1       259 1.89215E+01
 -1       260 1.98176E+01
 -1       261 1.89215E+01
 -1       262 1.89215E+01
 -1       263 1.98176E+01
 -1       264 1.89215E+01
 -1       265 2.21395E+01
 -1       266 2.21395E+01
 -1       267 2.05305E+01
 -1       268 2.21395E+01
 -1       269 2.21395E+01
 -1       270 2.05305E+01
 -1       271 2.21395E+01
 -1       272 2.21395E+01
 -1       273 2.21395E+01
 -1       274 2.21395E+01
 -1       275 2.21395E+01
 -1       276 2.21395E+01
 -1       277 2.21395E+01
 -1       278 2.21395E+01
 -1       279 1.91171E+01
 -1       280 1.91171E+01
 -1       281 2.06094E+01
 -1       282 2.06094E+01
 -1       283 2.06094E+01
 -1       284 1.91171E+01
 -1       285 2.06094E+01
 -1       286 1.87293E+01
 -1       287 1.87293E+01
 -1       288 1.89232E+01
 -1       289 1.87293E+01
 -1       290 1.87293E+01
 -1       291 1.87293E+01
 -1       292 1.87293E+01
 -1       293 1.87293E+01
 -1       294 1.83481E+01
 -1       295 1.98413E+01
 -1       296 1.85387E+01
 -1       297 1.98413E+01
 -1       298 1.84542E+01
 -1       299 2.01061E+01
 -1       300 1.84012E+01
 -1       301 2.01061E+01
 -1       302 1.84542E+01
 -1       303 2.01061E+01
 -1       304 1.84542E+01
 -1       305 2.01061E+01
 -1       306 1.82485E+01
 -1       307 1.94811E+01
 -1       308 1.83514E+01
 -1       309 1.94811E+01
 -1       310 1.75591E+01
 -1       311 1.82403E+01
 -1       312 1.79038E+01
 -1       313 1.82403E+01
 -1       314 2.19616E+01
 -1       315 2.20505E+01
 -1       316 1.97604E+01
 -1       317 2.20505E+01
 -1       318 2.19616E+01
 -1       319 2.20505E+01
 -1       320 2.19616E+01
 -1       321 2.20505E+01
 -3
    1PSTEP                        13           1           1          
    1PGM                1.000000E+00                                  
    1PGK                9.976274E+08                                  
    1PHID                         -1                                  
    1PSUBC                         0                                  
    1PMODE                         4                                  
  100CL  104 5026.947094         321                     2    4MODAL      1
 -4  DISP        4    1
 -5  D1          1    2    1    0
 -5  D2          1    2    2    0
 -5  D3          1    2    3    0
 -5  ALL         1    2    0    0    1ALL
 -1         1 0.00000E+00 0.00000E+00 0.00000E+00
 -1         2 0.00000E+00 0.00000E+00 0.00000E+00
 -1         3-7.28465E-01 1.24180E-01 5.31732E-01
 -1         4-6.90013E-01 7.49134E-02 4.26643E-01
 -1         5 0.00000E+00 0.00000E+00 0.00000E+00
 -1         6 0.00000E+00 0.00000E+00 0.00000E+00
 -1         7-7.04696E-01 1.28922E-01 4.05231E-15
 -1         8-6.78775E-01 1.33271E-01-9.72790E-02
 -1         9 0.00000E+00 0.00000E+00 0.00000E+00
 -1        10-2.59004E-01 3.31204E-02 2.79841E-01
 -1        11-7.19417E-01 9.80402E-02 4.84049E-01
 -1        12-2.08978E-01-3.86041E-02 2.33218E-01
 -1        13 0.00000E+00 0.00000E+00 0.00000E+00
 -1        14 0.00000E+00 0.00000E+00 0.00000E+00
 -1        15-7.05323E-01 1.28380E-01 2.51767E-01
 -1        16-6.73753E-01 1.06069E-01 1.48949E-01
 -1        17 0.00000E+00 0.00000E+00 0.00000E+00
 -1        18-2.15139E-01 3.93591E-02 1.67921E-15
 -1        19-7.01731E-01 1.29037E-01-4.60602E-02
 -1        20-1.81038E-01 4.73841E-02-5.11963E-02
 -1        21-2.16562E+00 3.94900E-01 7.39843E-01
 -1        22-2.16032E+00 3.87954E-01 6.00443E-01
 -1        23-2.16225E+00 3.95578E-01 6.77236E-15
 -1        24-2.15854E+00 3.96194E-01-1.35352E-01
 -1        25-1.39802E+00 2.49677E-01 6.73557E-01
 -1        26-2.16296E+00 3.91363E-01 6.75044E-01
 -1        27-1.37671E+00 2.21662E-01 5.45730E-01
 -1        28-2.16422E+00 3.95267E-01 3.60232E-01
 -1        29-2.15953E+00 3.91884E-01 2.19979E-01
 -1        30-1.38060E+00 2.52577E-01 6.27276E-15
 -1        31-2.16055E+00 3.95939E-01-6.59035E-02
 -1        32-1.36475E+00 2.55765E-01-1.23226E-01
 -1        33-3.69110E+00 6.81470E-01 6.43813E-01
 -1        34-3.71450E+00 7.12875E-01 5.22692E-01
 -1        35-3.70811E+00 6.78389E-01 8.88178E-15
 -1        36-3.72495E+00 6.75278E-01-1.17784E-01
 -1        37-2.95564E+00 5.43247E-01 7.24607E-01
 -1        38-3.69856E+00 6.97935E-01 5.87093E-01
 -1        39-2.96557E+00 5.56366E-01 5.88184E-01
 -1        40-3.70377E+00 6.79173E-01 3.14033E-01
 -1        41-3.72389E+00 6.93215E-01 1.92508E-01
 -1        42-2.96256E+00 5.41992E-01 7.10543E-15
 -1        43-3.71240E+00 6.77596E-01-5.74514E-02
 -1        44-2.96941E+00 5.40726E-01-1.32565E-01
 -1        45-4.74148E+00 8.79015E-01 3.06930E-01
 -1        46-4.78514E+00 9.37334E-01 2.48797E-01
 -1        47-4.77327E+00 8.73257E-01 1.31006E-14
 -1        48-4.80474E+00 8.67441E-01-5.61520E-02
 -1        49-4.30515E+00 7.96687E-01 4.98732E-01
 -1        50-4.75504E+00 9.09652E-01 2.80156E-01
 -1        51-4.33973E+00 8.42820E-01 4.04774E-01
 -1        52-4.76567E+00 8.74655E-01 1.48733E-01
 -1        53-4.80317E+00 9.00712E-01 9.03307E-02
 -1        54-4.32980E+00 7.92126E-01 1.11577E-14
 -1        55-4.78091E+00 8.71867E-01-2.72103E-02
 -1        56-4.35473E+00 7.87615E-01-9.12418E-02
 -1        57-4.91902E+00 9.13956E-01-1.75191E-01
 -1        58-4.97190E+00 9.84557E-01-1.43612E-01
 -1        59-4.95753E+00 9.06967E-01 1.84297E-14
 -1        60-4.99573E+00 8.99922E-01 3.20507E-02
 -1        61-4.95611E+00 9.19737E-01 7.64920E-02
 -1        62-4.93557E+00 9.51033E-01-1.58879E-01
 -1        63-5.00557E+00 9.85649E-01 6.12561E-02
 -1        64-4.94817E+00 9.08683E-01-8.86761E-02
 -1        65-4.99365E+00 9.40269E-01-5.71450E-02
 -1        66-4.99159E+00 9.13197E-01 1.40027E-14
 -1        67-4.96691E+00 9.05255E-01 1.62231E-02
 -1        68-5.02733E+00 9.06707E-01-1.39940E-02
 -1        69-4.04293E+00 7.53119E-01-6.90875E-01
 -1        70-4.09363E+00 8.20778E-01-5.63539E-01
 -1        71-4.07989E+00 7.46404E-01 2.27596E-14
 -1        72-4.11659E+00 7.39643E-01 1.26394E-01
 -1        73-4.61486E+00 8.58243E-01-4.35538E-01
 -1        74-4.05881E+00 7.88654E-01-6.28348E-01
 -1        75-4.66776E+00 9.28734E-01-3.55566E-01
 -1        76-4.07089E+00 7.48055E-01-3.43145E-01
 -1        77-4.11454E+00 7.78344E-01-2.15652E-01
 -1        78-4.65290E+00 8.51236E-01 2.22045E-14
 -1        79-4.08891E+00 7.44758E-01 6.27775E-02
 -1        80-4.69120E+00 8.44276E-01 7.96805E-02
 -1        81-2.15965E+00 4.05532E-01-1.13653E+00
 -1        82-2.19880E+00 4.57724E-01-9.26682E-01
 -1        83-2.18822E+00 4.00330E-01 2.55351E-14
 -1        84-2.21666E+00 3.95102E-01 2.07926E-01
 -1        85-3.21616E+00 6.00489E-01-9.27045E-01
 -1        86-2.17196E+00 4.32943E-01-1.03390E+00
 -1        87-3.26187E+00 6.61372E-01-7.55892E-01
 -1        88-2.18120E+00 4.01616E-01-5.63612E-01
 -1        89-2.21497E+00 4.25011E-01-3.53460E-01
 -1        90-3.24914E+00 5.94422E-01 2.39808E-14
 -1        91-2.19525E+00 3.99045E-01 1.03111E-01
 -1        92-3.28231E+00 5.88388E-01 1.69600E-01
 -1        93 4.96941E-01-8.48570E-02-1.43975E+00
 -1        94 4.74386E-01-5.48939E-02-1.17416E+00
 -1        95 4.80401E-01-8.78882E-02 2.75335E-14
 -1        96 4.63833E-01-9.09141E-02 2.63398E-01
 -1        97-9.08147E-01 1.74428E-01-1.30730E+00
 -1        98 4.89772E-01-6.91190E-02-1.30961E+00
 -1        99-9.39236E-01 2.15806E-01-1.06590E+00
 -1       100 4.84561E-01-8.71271E-02-7.14523E-01
 -1       101 4.64996E-01-7.36426E-02-4.48563E-01
 -1       102-9.30756E-01 1.70279E-01 2.75335E-14
 -1       103 4.76242E-01-8.86491E-02 1.30720E-01
 -1       104-9.53431E-01 1.66143E-01 2.39167E-01
 -1       105 3.59097E+00-6.54967E-01-1.57982E+00
 -1       106 3.58392E+00-6.45830E-01-1.28920E+00
 -1       107 3.58568E+00-6.55991E-01 2.57572E-14
 -1       108 3.58009E+00-6.56959E-01 2.89024E-01
 -1       109 2.01109E+00-3.63997E-01-1.52770E+00
 -1       110 3.58856E+00-6.50165E-01-1.43639E+00
 -1       111 1.99678E+00-3.44997E-01-1.24612E+00
 -1       112 3.58723E+00-6.55708E-01-7.86091E-01
 -1       113 3.58085E+00-6.51463E-01-4.95241E-01
 -1       114 2.00030E+00-3.65950E-01 2.66454E-14
 -1       115 3.58414E+00-6.56274E-01 1.43813E-01
 -1       116 1.98963E+00-3.67924E-01 2.79489E-01
 -1       117 6.80665E+00-1.24504E+00-1.60262E+00
 -1       118 6.80649E+00-1.24581E+00-1.30844E+00
 -1       119 6.80611E+00-1.24516E+00 2.70894E-14
 -1       120 6.80547E+00-1.24526E+00 2.93195E-01
 -1       121 5.19860E+00-9.50279E-01-1.59933E+00
 -1       122 6.80635E+00-1.24538E+00-1.45593E+00
 -1       123 5.19624E+00-9.47258E-01-1.30569E+00
 -1       124 6.80665E+00-1.24508E+00-8.00876E-01
 -1       125 6.80621E+00-1.24542E+00-5.06925E-01
 -1       126 5.19633E+00-9.50655E-01 2.70894E-14
 -1       127 6.80566E+00-1.24526E+00 1.46518E-01
 -1       128 5.19427E+00-9.51069E-01 2.92593E-01
 -1       129 0.00000E+00 0.00000E+00 0.00000E+00
 -1       130 0.00000E+00 0.00000E+00 0.00000E+00
 -1       131-7.28465E-01 1.24180E-01-5.31732E-01
 -1       132-7.09442E-01 1.81113E-01-6.17703E-01
 -1       133 0.00000E+00 0.00000E+00 0.00000E+00
 -1       134 0.00000E+00 0.00000E+00 0.00000E+00
 -1       135-7.05323E-01 1.28380E-01-2.51767E-01
 -1       136-6.83301E-01 1.58931E-01-3.42509E-01
 -1       137 0.00000E+00 0.00000E+00 0.00000E+00
 -1       138-2.59004E-01 3.31204E-02-2.79841E-01
 -1       139-7.29088E-01 1.50229E-01-5.73960E-01
 -1       140-2.38065E-01 1.20389E-01-3.37658E-01
 -1       141-2.16562E+00 3.94900E-01-7.39843E-01
 -1       142-2.16307E+00 4.02998E-01-8.69335E-01
 -1       143-2.16422E+00 3.95267E-01-3.60232E-01
 -1       144-2.16093E+00 3.99796E-01-4.90763E-01
 -1       145-1.39802E+00 2.49677E-01-6.73557E-01
 -1       146-2.16441E+00 3.99053E-01-8.05073E-01
 -1       147-1.38814E+00 2.84159E-01-7.90120E-01
 -1       148-3.69110E+00 6.81470E-01-6.43813E-01
 -1       149-3.70188E+00 6.43931E-01-7.56765E-01
 -1       150-3.70377E+00 6.79173E-01-3.14033E-01
 -1       151-3.71758E+00 6.58921E-01-4.28093E-01
 -1       152-2.95564E+00 5.43247E-01-7.24607E-01
 -1       153-3.69229E+00 6.63462E-01-7.00630E-01
 -1       154-2.96033E+00 5.27762E-01-8.51586E-01
 -1       155-4.74148E+00 8.79015E-01-3.06930E-01
 -1       156-4.76170E+00 8.09234E-01-3.60215E-01
 -1       157-4.76567E+00 8.74655E-01-1.48733E-01
 -1       158-4.79146E+00 8.37001E-01-2.02644E-01
 -1       159-4.30515E+00 7.96687E-01-4.98732E-01
 -1       160-4.74339E+00 8.45659E-01-3.33755E-01
 -1       161-4.32123E+00 7.41678E-01-5.86041E-01
 -1       162-4.91902E+00 9.13956E-01 1.75191E-01
 -1       163-4.94352E+00 8.29441E-01 2.07924E-01
 -1       164-4.94817E+00 9.08683E-01 8.86761E-02
 -1       165-4.97947E+00 8.63044E-01 1.21249E-01
 -1       166-4.95611E+00 9.19737E-01-7.64920E-02
 -1       167-4.92144E+00 8.73522E-01 1.91516E-01
 -1       168-4.97911E+00 8.41022E-01-8.86880E-02
 -1       169-4.04293E+00 7.53119E-01 6.90875E-01
 -1       170-4.06643E+00 6.72082E-01 8.15905E-01
 -1       171-4.07089E+00 7.48055E-01 3.43145E-01
 -1       172-4.10094E+00 7.04272E-01 4.68458E-01
 -1       173-4.61486E+00 8.58243E-01 4.35538E-01
 -1       174-4.04526E+00 7.14346E-01 7.53504E-01
 -1       175-4.63945E+00 7.73996E-01 5.14796E-01
 -1       176-2.15965E+00 4.05532E-01 1.13653E+00
 -1       177-2.17780E+00 3.42964E-01 1.34167E+00
 -1       178-2.18120E+00 4.01616E-01 5.63612E-01
 -1       179-2.20448E+00 3.67781E-01 7.69340E-01
 -1       180-3.21616E+00 6.00489E-01 9.27045E-01
 -1       181-2.16149E+00 3.75583E-01 1.23932E+00
 -1       182-3.23741E+00 5.27653E-01 1.09440E+00
 -1       183 4.96941E-01-8.48570E-02 1.43975E+00
 -1       184 4.86460E-01-1.20890E-01 1.69997E+00
 -1       185 4.84561E-01-8.71271E-02 7.14523E-01
 -1       186 4.71034E-01-1.06668E-01 9.75404E-01
 -1       187-9.08147E-01 1.74428E-01 1.30730E+00
 -1       188 4.95814E-01-1.02125E-01 1.57012E+00
 -1       189-9.22589E-01 1.24810E-01 1.54324E+00
 -1       190 3.59097E+00-6.54967E-01 1.57982E+00
 -1       191 3.58765E+00-6.66189E-01 1.86653E+00
 -1       192 3.58723E+00-6.55708E-01 7.86091E-01
 -1       193 3.58272E+00-6.61923E-01 1.07331E+00
 -1       194 2.01109E+00-3.63997E-01 1.52770E+00
 -1       195 3.59048E+00-6.60390E-01 1.72335E+00
 -1       196 2.00447E+00-3.87021E-01 1.80416E+00
 -1       197 6.80665E+00-1.24504E+00 1.60262E+00
 -1       198 6.80627E+00-1.24461E+00 1.89439E+00
 -1       199 6.80665E+00-1.24508E+00 8.00876E-01
 -1       200 6.80613E+00-1.24497E+00 1.09320E+00
 -1       201 5.19860E+00-9.50279E-01 1.59933E+00
 -1       202 6.80627E+00-1.24496E+00 1.74867E+00
 -1       203 5.19752E+00-9.54252E-01 1.89041E+00
 -1       204 0.00000E+00 0.00000E+00 0.00000E+00
 -1       205-7.09442E-01 1.81113E-01 6.17703E-01
 -1       206 0.00000E+00 0.00000E+00 0.00000E+00
 -1       207-6.78775E-01 1.33271E-01 9.72790E-02
 -1       208 0.00000E+00 0.00000E+00 0.00000E+00
 -1       209-2.38065E-01 1.20389E-01 3.37658E-01
 -1       210-7.29088E-01 1.50229E-01 5.73960E-01
 -1       211 0.00000E+00 0.00000E+00 0.00000E+00
 -1       212-6.83301E-01 1.58931E-01 3.42509E-01
 -1       213 0.00000E+00 0.00000E+00 0.00000E+00
 -1       214-1.81038E-01 4.73841E-02 5.11963E-02
 -1       215-7.01731E-01 1.29037E-01 4.60602E-02
 -1       216-2.16307E+00 4.02998E-01 8.69335E-01
 -1       217-2.15854E+00 3.96194E-01 1.35352E-01
 -1       218-1.38814E+00 2.84159E-01 7.90120E-01
 -1       219-2.16441E+00 3.99053E-01 8.05073E-01
 -1       220-2.16093E+00 3.99796E-01 4.90763E-01
 -1       221-1.36475E+00 2.55765E-01 1.23226E-01
 -1       222-2.16055E+00 3.95939E-01 6.59035E-02
 -1       223-3.70188E+00 6.43931E-01 7.56765E-01
 -1       224-3.72495E+00 6.75278E-01 1.17784E-01
 -1       225-2.96033E+00 5.27762E-01 8.51586E-01
 -1       226-3.69229E+00 6.63462E-01 7.00630E-01
 -1       227-3.71758E+00 6.58921E-01 4.28093E-01
 -1       228-2.96941E+00 5.40726E-01 1.32565E-01
 -1       229-3.71240E+00 6.77596E-01 5.74514E-02
 -1       230-4.76170E+00 8.09234E-01 3.60215E-01
 -1       231-4.80474E+00 8.67441E-01 5.61520E-02
 -1       232-4.32123E+00 7.41678E-01 5.86041E-01
 -1       233-4.74339E+00 8.45659E-01 3.33755E-01
 -1       234-4.79146E+00 8.37001E-01 2.02644E-01
 -1       235-4.35473E+00 7.87615E-01 9.12418E-02
 -1       236-4.78091E+00 8.71867E-01 2.72103E-02
 -1       237-4.94352E+00 8.29441E-01-2.07924E-01
 -1       238-4.99573E+00 8.99922E-01-3.20507E-02
 -1       239-4.97911E+00 8.41022E-01 8.86880E-02
 -1       240-4.92144E+00 8.73522E-01-1.91516E-01
 -1       241-4.97947E+00 8.63044E-01-1.21249E-01
 -1       242-5.02733E+00 9.06707E-01 1.39940E-02
 -1       243-4.96691E+00 9.05255E-01-1.62231E-02
 -1       244-4.06643E+00 6.72082E-01-8.15905E-01
 -1       245-4.11659E+00 7.39643E-01-1.26394E-01
 -1       246-4.63945E+00 7.73996E-01-5.14796E-01
 -1       247-4.04526E+00 7.14346E-01-7.53504E-01
 -1       248-4.10094E+00 7.04272E-01-4.68458E-01
 -1       249-4.69120E+00 8.44276E-01-7.96805E-02
 -1       250-4.08891E+00 7.44758E-01-6.27775E-02
 -1       251-2.17780E+00 3.42964E-01-1.34167E+00
 -1       252-2.21666E+00 3.95102E-01-2.07926E-01
 -1       253-3.23741E+00 5.27653E-01-1.09440E+00
 -1       254-2.16149E+00 3.75583E-01-1.23932E+00
 -1       255-2.20448E+00 3.67781E-01-7.69340E-01
 -1       256-3.28231E+00 5.88388E-01-1.69600E-01
 -1       257-2.19525E+00 3.99045E-01-1.03111E-01
 -1       258 4.86460E-01-1.20890E-01-1.69997E+00
 -1       259 4.63833E-01-9.09141E-02-2.63398E-01
 -1       260-9.22589E-01 1.24810E-01-1.54324E+00
 -1       261 4.95814E-01-1.02125E-01-1.57012E+00
 -1       262 4.71034E-01-1.06668E-01-9.75404E-01
 -1       263-9.53431E-01 1.66143E-01-2.39167E-01
 -1       264 4.76242E-01-8.86491E-02-1.30720E-01
 -1       265 3.58765E+00-6.66189E-01-1.86653E+00
 -1       266 3.58009E+00-6.56959E-01-2.89024E-01
 -1       267 2.00447E+00-3.87021E-01-1.80416E+00
 -1       268 3.59048E+00-6.60390E-01-1.72335E+00
 -1       269 3.58272E+00-6.61923E-01-1.07331E+00
 -1       270 1.98963E+00-3.67924E-01-2.79489E-01
 -1       271 3.58414E+00-6.56274E-01-1.43813E-01
 -1       272 6.80627E+00-1.24461E+00-1.89439E+00
 -1       273 6.80547E+00-1.24526E+00-2.93195E-01
 -1       274 5.19752E+00-9.54252E-01-1.89041E+00
 -1       275 6.80627E+00-1.24496E+00-1.74867E+00
 -1       276 6.80613E+00-1.24497E+00-1.09320E+00
 -1       277 5.19427E+00-9.51069E-01-2.92593E-01
 -1       278 6.80566E+00-1.24526E+00-1.46518E-01
 -1       279 0.00000E+00 0.00000E+00 0.00000E+00
 -1       280-6.90013E-01 7.49134E-02-4.26643E-01
 -1       281 0.00000E+00 0.00000E+00 0.00000E+00
 -1       282-6.73753E-01 1.06069E-01-1.48949E-01
 -1       283 0.00000E+00 0.00000E+00 0.00000E+00
 -1       284-2.08978E-01-3.86041E-02-2.33218E-01
 -1       285-7.19417E-01 9.80402E-02-4.84049E-01
 -1       286-2.16032E+00 3.87954E-01-6.00443E-01
 -1       287-2.15953E+00 3.91884E-01-2.19979E-01
 -1       288-1.37671E+00 2.21662E-01-5.45730E-01
 -1       289-2.16296E+00 3.91363E-01-6.75044E-01
 -1       290-3.71450E+00 7.12875E-01-5.22692E-01
 -1       291-3.72389E+00 6.93215E-01-1.92508E-01
 -1       292-2.96557E+00 5.56366E-01-5.88184E-01
 -1       293-3.69856E+00 6.97935E-01-5.87093E-01
 -1       294-4.78514E+00 9.37334E-01-2.48797E-01
 -1       295-4.80317E+00 9.00712E-01-9.03307E-02
 -1       296-4.33973E+00 8.42820E-01-4.04774E-01
 -1       297-4.75504E+00 9.09652E-01-2.80156E-01
 -1       298-4.97190E+00 9.84557E-01 1.43612E-01
 -1       299-4.99365E+00 9.40269E-01 5.71450E-02
 -1       300-5.00557E+00 9.85649E-01-6.12561E-02
 -1       301-4.93557E+00 9.51033E-01 1.58879E-01
 -1       302-4.09363E+00 8.20778E-01 5.63539E-01
 -1       303-4.11454E+00 7.78344E-01 2.15652E-01
 -1       304-4.66776E+00 9.28734E-01 3.55566E-01
 -1       305-4.05881E+00 7.88654E-01 6.28348E-01
 -1       306-2.19880E+00 4.57724E-01 9.26682E-01
 -1       307-2.21497E+00 4.25011E-01 3.53460E-01
 -1       308-3.26187E+00 6.61372E-01 7.55892E-01
 -1       309-2.17196E+00 4.32943E-01 1.03390E+00
 -1       310 4.74386E-01-5.48939E-02 1.17416E+00
 -1       311 4.64996E-01-7.36426E-02 4.48563E-01
 -1       312-9.39236E-01 2.15806E-01 1.06590E+00
 -1       313 4.89772E-01-6.91190E-02 1.30961E+00
 -1       314 3.58392E+00-6.45830E-01 1.28920E+00
 -1       315 3.58085E+00-6.51463E-01 4.95241E-01
 -1       316 1.99678E+00-3.44997E-01 1.24612E+00
 -1       317 3.58856E+00-6.50165E-01 1.43639E+00
 -1       318 6.80649E+00-1.24581E+00 1.30844E+00
 -1       319 6.80621E+00-1.24542E+00 5.06925E-01
 -1       320 5.19624E+00-9.47258E-01 1.30569E+00
 -1       321 6.80635E+00-1.24538E+00 1.45593E+00
 -3
    1PSTEP                        14           1           1          
    1PGM                1.000000E+00                                  
    1PGK                9.976274E+08                                  
    1PHID                         -1                                  
    1PSUBC                         0                                  
    1PMODE                         4                                  
  100CL  104 5026.947094         321                     2    4MODAL      1
 -4  STRESS      6    1
 -5  SXX         1    4    1    1
 -5  SYY         1    4    2    2
 -5  SZZ         1    4    3    3
 -5  SXY         1    4    1    2
 -5  SYZ         1    4    2    3
 -5  SZX         1    4    3    1
 -1         1 6.13317E+12 6.13317E+12 1.43106E+13 3.58099E+04-1.85229E+12-1.17835E+12
 -1         2 7.11941E+12 7.11940E+12 1.66118E+13-1.93936E+04 6.70420E+10-2.48403E+12
 -1         3-7.42188E+10 4.91950E+11 8.89291E+12-3.92462E+10 5.41790E+11-1.53198E+11
 -1         4-1.54540E+11 1.86666E+11 6.83036E+12 2.08355E+11 6.25816E+11-6.58962E+11
 -1         5-1.30248E+12-1.30248E+12-3.03908E+12 1.06006E+05 4.54447E+11-3.66455E+11
 -1         6 3.05853E-02 3.14286E-02 7.30286E-02-1.00955E-03 2.30298E+11-1.25882E+12
 -1         7 8.28552E-02 2.14157E-02 1.53366E-01 1.50795E-02 4.41981E+11-2.41589E+12
 -1         8-9.00009E+10 1.35781E+10-1.62693E+12 2.14522E+11 2.80272E+10-2.96145E+12
 -1         9 6.68524E+12 6.68524E+12 1.55991E+13-1.58336E+06-9.04781E+11-1.91350E+12
 -1        10 7.84842E+11 3.90557E+11 1.15193E+13 7.43759E+10 2.50219E+11-9.07804E+11
 -1        11-1.43579E+11 2.51137E+11 7.87819E+12-2.51205E+09 5.72652E+11-3.69286E+11
 -1        12 7.21144E+11 9.14495E+10 9.20351E+12-3.15971E+11-3.05145E+11-4.70558E+11
 -1        13 2.22476E+12 2.22477E+12 5.19128E+12-3.65912E+06-6.82944E+11-6.86567E+11
 -1        14 3.38893E+12 3.38893E+12 7.90771E+12 4.13376E+05 1.63460E+11-1.78060E+12
 -1        15 5.08217E+11 4.51644E+11 4.57027E+12-1.90990E+08 4.85954E+11-1.28582E+12
 -1        16 4.25532E+11 2.98244E+11 2.69374E+12 2.19024E+11 2.99772E+11-1.80871E+12
 -1        17-6.19996E+11-6.19996E+11-1.44669E+12-2.25953E+06 3.25757E+11-8.93483E+11
 -1        18 1.77002E-02-1.06049E-02 8.39386E-02 1.74332E-02 2.97622E+11-1.62682E+12
 -1        19-8.26270E+10-9.29769E+10-8.36118E+11 1.04396E+09 2.35237E+11-2.65625E+12
 -1        20-7.14513E+10-1.43585E+11-2.10742E+12-4.06543E+11 1.66080E+11-1.36771E+12
 -1        21 2.42422E+11 6.01298E+10 1.05797E+12 1.17600E+10 4.62585E+11-6.19527E+11
 -1        22 2.06246E+11 3.48512E+10 8.46874E+11-3.56617E+10 2.61797E+11-7.54015E+11
 -1        23 4.87217E-01 5.78880E-02 1.44779E-01 1.14799E-01 3.84252E+11-2.10034E+12
 -1        24-1.10006E+10-4.43504E+10-1.93553E+11-6.42811E+10 1.13341E+11-2.52852E+12
 -1        25-4.43486E+11-1.57211E+11 4.19024E+12-1.40339E+10 3.74807E+11 4.12518E+10
 -1        26 2.35251E+11 6.38099E+10 9.49913E+11 1.70050E+10 4.18350E+11-5.78103E+11
 -1        27-3.65575E+11-1.01504E+11 3.50978E+12 6.43106E+10 1.48076E+11-1.55094E+11
 -1        28 2.63085E+10 1.93747E+09 5.57479E+11 1.55723E+09 4.05038E+11-1.42232E+12
 -1        29 2.57695E+10-2.55786E+10 3.59648E+11-5.25036E+10 1.29661E+11-1.70975E+12
 -1        30 1.22971E-01-1.06087E-02 8.83408E-02 4.28276E-02 3.03806E+11-1.66062E+12
 -1        31-3.54456E+08-4.81307E+09-1.01989E+11-8.51190E+09 2.60210E+11-2.21396E+12
 -1        32 2.87613E+10 8.11346E+10-7.66594E+11 7.67103E+10-7.54690E+09-2.04872E+12
 -1        33-1.11598E+11-8.56660E+10-5.00024E+12-2.17789E+09 3.61419E+11-4.88318E+11
 -1        34-9.41867E+10-5.38795E+10-4.05530E+12 1.11867E+10 2.03978E+11-6.08889E+11
 -1        35-1.70394E-01-4.61773E-01-8.80947E-02 9.06384E-03 3.01947E+11-1.65046E+12
 -1        36 1.56724E+10 2.04165E+10 9.14781E+11 1.19045E+10 8.93365E+10-1.97554E+12
 -1        37 7.39986E+10 1.93089E+10-1.98869E+12 3.20665E+09 3.15023E+11-4.86250E+10
 -1        38-1.13041E+11-8.35964E+10-4.56253E+12 2.97674E+09 3.23472E+11-4.76571E+11
 -1        39 4.13658E+10 2.04484E+10-1.61427E+12-1.09765E+10 1.38207E+11-1.82843E+11
 -1        40-1.81557E+10-1.36393E+10-2.42816E+12-6.57669E+08 3.19425E+11-1.10181E+12
 -1        41 9.81243E+08 1.84268E+10-1.47873E+12 1.18550E+10 1.07196E+11-1.33144E+12
 -1        42-1.68152E-01-2.98833E-01-9.73778E-02 4.77352E-02 2.46633E+11-1.34811E+12
 -1        43 2.49528E+09 3.32154E+09 4.44226E+11 3.59485E+09 2.01573E+11-1.74600E+12
 -1        44-3.53251E+09-1.35378E+10 3.63825E+11-1.75277E+10 8.89581E+09-1.72193E+12
 -1        45-4.67989E+10-8.05954E+10-9.17263E+12 1.42945E+09 2.17086E+11-2.92752E+11
 -1        46-4.88405E+10-5.19163E+10-7.46167E+12-2.01461E+09 1.22893E+11-3.64655E+11
 -1        47-1.10380E-01 4.10184E-01 1.05967E-01-1.14732E-01 1.81526E+11-9.92231E+11
 -1        48 1.47447E+10 8.56173E+09 1.67811E+12-7.81344E+09 5.35582E+10-1.18660E+12
 -1        49-5.39879E+10-2.39804E+10-7.09814E+12-1.95469E+09 2.22097E+11-2.01126E+10
 -1        50-5.47283E+10-7.39632E+10-8.35670E+12 7.12158E+09 1.94493E+11-2.82884E+11
 -1        51-5.96919E+10 7.29637E+08-5.76963E+12 1.10723E+10 9.70433E+10-1.20030E+11
 -1        52-2.59178E+10-2.56863E+10-4.51164E+12-5.41119E+08 1.91532E+11-6.65665E+11
 -1        53-1.49071E+10-5.77244E+07-2.79476E+12-5.21724E+09 6.33988E+10-8.02301E+11
 -1        54 1.13869E-03 4.35748E-02 1.02608E-01-8.10182E-02 1.74542E+11-9.54056E+11
 -1        55 4.69924E+09 4.74158E+09 8.25393E+11 2.95778E+09 1.21782E+11-1.04693E+12
 -1        56 4.38714E+09 9.87694E+09 1.29859E+12 1.06845E+10 3.67955E+09-1.21399E+12
 -1        57-7.10219E+10-9.09009E+10-1.10767E+13 5.63717E+08 5.00323E+10-6.87211E+10
 -1        58-6.90016E+10-5.83656E+10-9.01506E+12 1.30385E+09 2.76954E+10-8.51503E+10
 -1        59-6.79729E-01-3.00627E-01-4.58603E-02-4.59821E-02 4.18861E+10-2.28952E+11
 -1        60 1.66301E+10 1.29933E+10 2.02645E+12-3.08131E+09 1.25723E+10-2.73479E+11
 -1        61-2.85742E+10-1.73000E+10-1.01386E+13-7.81374E+08 1.02492E+11-1.05855E+10
 -1        62-7.81839E+10-8.44447E+10-1.00877E+13 6.53194E+09 4.42357E+10-6.68394E+10
 -1        63-4.25384E+10 6.91321E+09-8.25150E+12 7.38232E+09 4.43804E+10-5.51876E+10
 -1        64-2.70009E+10-2.51917E+10-5.45631E+12-6.50526E+08 4.42162E+10-1.53623E+11
 -1        65-1.41876E+10 4.41341E+09-3.38926E+12-1.04418E+09 1.47833E+10-1.84995E+11
 -1        66-1.79934E-01 1.93295E-01 1.17905E-01 2.69318E-03 8.05766E+10-4.40436E+11
 -1        67 4.60876E+09 4.93974E+09 9.98218E+11 3.55581E+09 2.81049E+10-2.41688E+11
 -1        68 3.16498E+09 5.22757E+09 1.85482E+12 4.27103E+09 1.93659E+09-5.60227E+11
 -1        69-5.29322E+10-7.26820E+10-1.05867E+13 6.67607E+08-1.05292E+11 1.42251E+11
 -1        70-5.23450E+10-4.68761E+10-8.62109E+12 2.25784E+08-6.06426E+10 1.77722E+11
 -1        71 2.50650E-01-2.77823E-01-1.17741E-02 9.68846E-02-8.78437E+10 4.80158E+11
 -1        72 1.32970E+10 9.68380E+09 1.93681E+12-3.64918E+09-2.60245E+10 5.75533E+11
 -1        73-3.35741E+10-1.76855E+10-1.08450E+13-1.05157E+09-2.18001E+10 1.41375E+09
 -1        74-5.91342E+10-6.74213E+10-9.63814E+12 5.50737E+09-9.57869E+10 1.37759E+11
 -1        75-4.50649E+10 5.55682E+09-8.83057E+12 8.09525E+09-1.09963E+10 1.25241E+10
 -1        76-2.21934E+10-2.10389E+10-5.22760E+12-5.18451E+08-9.28479E+10 3.21826E+11
 -1        77-1.20920E+10 2.43184E+09-3.25739E+12-1.87054E+09-3.08955E+10 3.89118E+11
 -1        78-3.44568E-01-2.50181E-01-7.65686E-02 2.65572E-02-1.68692E+10 9.22077E+10
 -1        79 3.84901E+09 4.06023E+09 9.56375E+11 2.83388E+09-5.88773E+10 5.07512E+11
 -1        80 3.23551E+09 6.14229E+09 1.98407E+12 5.74794E+09-2.58642E+08 1.19160E+11
 -1        81-2.89166E+10-3.87285E+10-8.12767E+12 3.46623E+08-2.13808E+11 2.89027E+11
 -1        82-2.82321E+10-2.48124E+10-6.62483E+12 1.82797E+08-1.22890E+11 3.61022E+11
 -1        83-2.04126E-01-5.75336E-02 1.46561E-02 3.43417E-02-1.78502E+11 9.75702E+11
 -1        84 7.08528E+09 5.29022E+09 1.48694E+12-1.89466E+09-5.28766E+10 1.16869E+12
 -1        85-2.22534E+10-1.18094E+10-9.36929E+12-6.76594E+08-1.23555E+11 1.13102E+10
 -1        86-3.19915E+10-3.59102E+10-7.39477E+12 2.96269E+09-1.93751E+11 2.80055E+11
 -1        87-3.04974E+10 4.04285E+09-7.63414E+12 5.40230E+09-5.65162E+10 6.85869E+10
 -1        88-1.17972E+10-1.11144E+10-4.02870E+12-2.68330E+08-1.88603E+11 6.54091E+11
 -1        89-6.38833E+09 1.49240E+09-2.52360E+12-9.63401E+08-6.29337E+10 7.90299E+11
 -1        90 9.46131E-02-6.78630E-02 6.55212E-02-1.18841E-02-9.65884E+10 5.27958E+11
 -1        91 2.03335E+09 2.15827E+09 7.37040E+11 1.46671E+09-1.19664E+11 1.03092E+12
 -1        92 2.16049E+09 4.07119E+09 1.71409E+12 3.69830E+09-2.06918E+09 6.75359E+11
 -1        93 9.52403E+09 1.05418E+10-4.59626E+12 3.93325E+07-2.45288E+11 3.29957E+11
 -1        94 9.12005E+09 6.80069E+09-3.75762E+12-2.04070E+08-1.40238E+11 4.12146E+11
 -1        95 2.56986E-01-5.56040E-03 3.97010E-02 6.52308E-02-2.04627E+11 1.11850E+12
 -1        96-1.92860E+09-1.74240E+09 8.40874E+11-2.14993E+08-6.03647E+10 1.34076E+12
 -1        97-6.55914E+09-2.66675E+09-6.37050E+12-2.12459E+08-1.77765E+11 1.58781E+10
 -1        98 1.06647E+10 1.01285E+10-4.17185E+12-6.22082E+08-2.22681E+11 3.19105E+11
 -1        99-9.52268E+09 1.17781E+09-5.19964E+12 1.68115E+09-8.07634E+10 9.77841E+10
 -1       100 2.76706E+09 2.13918E+09-2.30861E+12 1.13619E+08-2.16260E+11 7.49185E+11
 -1       101 1.37776E+09-1.39283E+09-1.47158E+12-1.51193E+08-7.12648E+10 9.05745E+11
 -1       102 1.77433E-01 2.22756E-02 1.02287E-01 6.64213E-02-1.38983E+11 7.59689E+11
 -1       103-3.91358E+08-5.06227E+08 4.22354E+11-6.21048E+08-1.37061E+11 1.18209E+12
 -1       104 4.87874E+08 1.19998E+09 1.16547E+12 1.16131E+09-2.90486E+09 9.71674E+11
 -1       105 4.78396E+10 6.65557E+10-1.26395E+12-3.99544E+08-1.77360E+11 2.41974E+11
 -1       106 4.71234E+10 3.87517E+10-1.06629E+12-1.84344E+09-1.03611E+11 3.03945E+11
 -1       107 1.27093E+00 5.53517E-01 5.76491E-01 1.06406E-02-1.47921E+11 8.08542E+11
 -1       108-1.21762E+10-8.75212E+09 2.31236E+11 2.18393E+09-4.42686E+10 9.69461E+11
 -1       109 1.27107E+10 8.00325E+09-2.93532E+12 3.35373E+08-1.63759E+11 1.57526E+10
 -1       110 5.10558E+10 5.74363E+10-1.13894E+12-5.63095E+09-1.60640E+11 2.36519E+11
 -1       111 1.92312E+10-2.71290E+09-2.41102E+12-3.54768E+09-7.77566E+10 9.42417E+10
 -1       112 2.27344E+10 2.22263E+10-6.87331E+11 5.95082E+08-1.56484E+11 5.43003E+11
 -1       113 1.49483E+10 1.53578E+08-4.87019E+11 1.69813E+08-5.38968E+10 6.57442E+11
 -1       114 1.68786E-01 8.94196E-02 3.58143E-02-1.31541E-03-1.27911E+11 6.99171E+11
 -1       115-4.06624E+09-4.15921E+09 1.25745E+11-3.25275E+09-9.93409E+10 8.55352E+11
 -1       116-1.46417E+09-2.32539E+09 5.37008E+11-1.83317E+09-2.88189E+09 8.95117E+11
 -1       117 7.92709E+10 8.95744E+10 2.53112E+11 1.31330E+09-3.21276E+10 6.31008E+10
 -1       118 8.26309E+10 4.88855E+10 2.12320E+11-4.44556E+09-2.15765E+10 7.72479E+10
 -1       119 6.07513E-01-3.79868E-02 1.56048E-01 2.36411E-01-2.50218E+10 1.36771E+11
 -1       120-1.63874E+10-1.45024E+10-4.63061E+10-7.17858E+09-1.15441E+10 1.75611E+11
 -1       121 3.53502E+10 2.90500E+10-4.59549E+11 1.13833E+09-7.46496E+10-1.44067E+07
 -1       122 8.94851E+10 7.50825E+10 2.68008E+11-8.79982E+09-2.77268E+10 5.42630E+10
 -1       123 4.25464E+10-1.24198E+09-3.91699E+11-6.83968E+09-2.90832E+10 3.08345E+10
 -1       124 4.66836E+10 2.77215E+10 5.24804E+10 2.09041E+09-2.57111E+10 1.11061E+11
 -1       125 3.86857E+10-5.15280E+09-9.16309E+09-4.92578E+09-1.08624E+10 1.37537E+11
 -1       126 1.10849E+00 2.84758E-01 4.43556E-01 8.60167E-03-5.73086E+10 3.13252E+11
 -1       127-5.07157E+09-8.54064E+09-9.60115E+09-1.14263E+10-2.03183E+10 1.40539E+11
 -1       128-5.31463E+09-6.46723E+09 8.40732E+10-6.22217E+09 2.63568E+06 4.08039E+11
 -1       129-8.87974E+12-8.87974E+12-2.07192E+13 5.18465E+04 2.42666E+12-1.96117E+12
 -1       130-7.11941E+12-7.11940E+12-1.66118E+13 1.93936E+04 6.70420E+10-2.48403E+12
 -1       131 7.42188E+10-4.91950E+11-8.89291E+12 3.92462E+10 5.41790E+11-1.53198E+11
 -1       132 9.45778E+10-1.41090E+11-9.88916E+12 3.01661E+11-4.19699E+11-4.67688E+11
 -1       133-4.90965E+12-4.90965E+12-1.14561E+13-4.51195E+06 1.45463E+12-1.07664E+12
 -1       134-3.38893E+12-3.38893E+12-7.90771E+12-4.13376E+05 1.63460E+11-1.78060E+12
 -1       135-5.08217E+11-4.51644E+11-4.57027E+12 1.90990E+08 4.85954E+11-1.28582E+12
 -1       136-5.50075E+11-2.64545E+11-5.86271E+12 2.33242E+11-1.80735E+11-1.71719E+12
 -1       137-7.99047E+12-7.99046E+12-1.86447E+13-3.07823E+06 1.22735E+12-2.30457E+12
 -1       138-7.84842E+11-3.90557E+11-1.15193E+13-7.43759E+10 2.50219E+11-9.07804E+11
 -1       139 4.06187E+10-4.29622E+11-9.44357E+12 8.02287E+10 7.24004E+10-2.81378E+11
 -1       140-8.05709E+11-3.70783E+11-1.33250E+13-4.57469E+11 5.04415E+11-6.18665E+11
 -1       141-2.42422E+11-6.01298E+10-1.05797E+12-1.17600E+10 4.62585E+11-6.19527E+11
 -1       142-2.33724E+11-1.15343E+11-1.22612E+12-5.16319E+10 5.51583E+09-7.07129E+11
 -1       143-2.63085E+10-1.93747E+09-5.57479E+11-1.55723E+09 4.05038E+11-1.42232E+12
 -1       144-5.17104E+10-6.17077E+10-7.44161E+11-4.97024E+10 8.02090E+10-1.66979E+12
 -1       145 4.43486E+11 1.57211E+11-4.19024E+12 1.40339E+10 3.74807E+11 4.12518E+10
 -1       146-2.41861E+11-7.79847E+10-1.15185E+12-1.69332E+09 1.99926E+11-5.69056E+11
 -1       147 4.29319E+11 2.46928E+11-5.08155E+12 9.31103E+10-9.96183E+10-1.09779E+11
 -1       148 1.11598E+11 8.56660E+10 5.00024E+12 2.17789E+09 3.61419E+11-4.88318E+11
 -1       149 1.21107E+11 9.32669E+10 5.87135E+12 1.61964E+10 1.23986E+10-5.73840E+11
 -1       150 1.81557E+10 1.36393E+10 2.42816E+12 6.57669E+08 3.19425E+11-1.10181E+12
 -1       151 3.05975E+10 2.30904E+10 3.30836E+12 1.38030E+10 6.57934E+10-1.30119E+12
 -1       152-7.39986E+10-1.93089E+10 1.98869E+12-3.20665E+09 3.15023E+11-4.86250E+10
 -1       153 1.13894E+11 8.90146E+10 5.43832E+12 7.67080E+09 1.58160E+11-4.68996E+11
 -1       154-5.19717E+10-3.75243E+10 2.33718E+12-1.58921E+10-7.85608E+10-1.43186E+11
 -1       155 4.67989E+10 8.05954E+10 9.17263E+12-1.42945E+09 2.17086E+11-2.92752E+11
 -1       156 7.18767E+10 7.40011E+10 1.08032E+13-2.91680E+09 6.64161E+09-3.43387E+11
 -1       157 2.59178E+10 2.56863E+10 4.51164E+12 5.41119E+08 1.91532E+11-6.65665E+11
 -1       158 4.39394E+10 2.07799E+10 6.15187E+12-2.88260E+09 3.93005E+10-7.84238E+11
 -1       159 5.39879E+10 2.39804E+10 7.09814E+12 1.95469E+09 2.22097E+11-2.01126E+10
 -1       160 5.85405E+10 8.47290E+10 9.99346E+12 5.63973E+09 9.57606E+10-2.78475E+11
 -1       161 6.35498E+10 2.18171E+10 8.35340E+12 1.60308E+10-5.83252E+10-9.16054E+10
 -1       162 7.10219E+10 9.09009E+10 1.10767E+13-5.63717E+08 5.00323E+10-6.87211E+10
 -1       163 9.58756E+10 8.85295E+10 1.30522E+13 1.88774E+09 2.62138E+09-8.05631E+10
 -1       164 2.70009E+10 2.51917E+10 5.45631E+12 6.50526E+08 4.42162E+10-1.53623E+11
 -1       165 4.71380E+10 2.48786E+10 7.44285E+12 1.35627E+09 9.49592E+09-1.81061E+11
 -1       166 2.85742E+10 1.73000E+10 1.01386E+13 7.81374E+08 1.02492E+11-1.05855E+10
 -1       167 8.19280E+10 9.56640E+10 1.20694E+13 6.58903E+09 2.27333E+10-6.58721E+10
 -1       168 4.28674E+10 8.71156E+09 1.19467E+13 1.06883E+10-2.65619E+10-4.22089E+10
 -1       169 5.29322E+10 7.26820E+10 1.05867E+13-6.67607E+08-1.05292E+11 1.42251E+11
 -1       170 7.37160E+10 6.99387E+10 1.24818E+13 3.26895E+08-2.43676E+09 1.67073E+11
 -1       171 2.21934E+10 2.10389E+10 5.22760E+12 5.18451E+08-9.28479E+10 3.21826E+11
 -1       172 3.84528E+10 1.97859E+10 7.13165E+12 8.48150E+07-1.91156E+10 3.79806E+11
 -1       173 3.35741E+10 1.76855E+10 1.08450E+13 1.05157E+09-2.18001E+10 1.41375E+09
 -1       174 6.23090E+10 7.66683E+10 1.15388E+13 5.18068E+09-4.48857E+10 1.35604E+11
 -1       175 4.60823E+10 1.11183E+10 1.27851E+13 1.17205E+10 7.01671E+09 9.22867E+09
 -1       176 2.89166E+10 3.87285E+10 8.12767E+12-3.46623E+08-2.13808E+11 2.89027E+11
 -1       177 3.95805E+10 3.72185E+10 9.59157E+12 2.64658E+08-5.26879E+09 3.39503E+11
 -1       178 1.17972E+10 1.11144E+10 4.02870E+12 2.68330E+08-1.88603E+11 6.54091E+11
 -1       179 2.04251E+10 1.05151E+10 5.49778E+12 9.14467E+07-3.87268E+10 7.71686E+11
 -1       180 2.22534E+10 1.18094E+10 9.36929E+12 6.76594E+08-1.23555E+11 1.13102E+10
 -1       181 3.36422E+10 4.08157E+10 8.86226E+12 2.80317E+09-9.20096E+10 2.75627E+11
 -1       182 3.10791E+10 7.22240E+09 1.10529E+13 7.82157E+09 3.44657E+10 5.19420E+10
 -1       183-9.52403E+09-1.05418E+10 4.59626E+12-3.93325E+07-2.45288E+11 3.29957E+11
 -1       184-1.23262E+10-1.07242E+10 5.44037E+12-2.95458E+08-6.07361E+09 3.87601E+11
 -1       185-2.76706E+09-2.13918E+09 2.30861E+12-1.13619E+08-2.16260E+11 7.49185E+11
 -1       186-5.30748E+09-2.54800E+09 3.15281E+12-3.97162E+08-4.46014E+10 8.84175E+11
 -1       187 6.55914E+09 2.66675E+09 6.37050E+12 2.12459E+08-1.77765E+11 1.58781E+10
 -1       188-1.08761E+10-1.13515E+10 5.01787E+12-7.22402E+08-1.04780E+11 3.14227E+11
 -1       189 9.73631E+09 2.34557E+09 7.52816E+12 2.43400E+09 4.93392E+10 7.39822E+10
 -1       190-4.78396E+10-6.65557E+10 1.26395E+12 3.99544E+08-1.77360E+11 2.41974E+11
 -1       191-6.50571E+10-5.92748E+10 1.54380E+12-2.66897E+09-4.27585E+09 2.85772E+11
 -1       192-2.27344E+10-2.22263E+10 6.87331E+11-5.95082E+08-1.56484E+11 5.43003E+11
 -1       193-3.77270E+10-1.94922E+10 9.51912E+11-1.95011E+09-3.19084E+10 6.42162E+11
 -1       194-1.27107E+10-8.00325E+09 2.93532E+12-3.35373E+08-1.63759E+11 1.57526E+10
 -1       195-5.46500E+10-6.70731E+10 1.40219E+12-5.95665E+09-7.71188E+10 2.32497E+11
 -1       196-1.95361E+10-4.37949E+09 3.49073E+12-5.13641E+09 4.74652E+10 7.13327E+10
 -1       197-7.92709E+10-8.95744E+10-2.53112E+11-1.31330E+09-3.21276E+10 6.31008E+10
 -1       198-1.06860E+11-8.35524E+10-3.07402E+11-6.43639E+09-6.17252E+09 7.44298E+10
 -1       199-4.66836E+10-2.77215E+10-5.24804E+10-2.09041E+09-2.57111E+10 1.11061E+11
 -1       200-6.97886E+10-2.83663E+10-9.16608E+10-8.59824E+09-8.92737E+09 1.36566E+11
 -1       201-3.53502E+10-2.90500E+10 4.59549E+11-1.13833E+09-7.46496E+10-1.44067E+07
 -1       202-9.37319E+10-9.49276E+10-2.83101E+11-1.12740E+10-2.24194E+10 5.39090E+10
 -1       203-4.50229E+10-1.47786E+10 5.67111E+11-9.90265E+09 1.94246E+10 2.19601E+10
 -1       204 8.87974E+12 8.87974E+12 2.07192E+13-5.18464E+04 2.42666E+12-1.96117E+12
 -1       205-9.45778E+10 1.41090E+11 9.88916E+12-3.01661E+11-4.19699E+11-4.67688E+11
 -1       206 1.30248E+12 1.30248E+12 3.03908E+12-1.06006E+05 4.54447E+11-3.66455E+11
 -1       207 9.00009E+10-1.35781E+10 1.62693E+12-2.14522E+11 2.80272E+10-2.96145E+12
 -1       208 7.99047E+12 7.99046E+12 1.86447E+13 3.07823E+06 1.22735E+12-2.30457E+12
 -1       209 8.05709E+11 3.70783E+11 1.33250E+13 4.57469E+11 5.04415E+11-6.18665E+11
 -1       210-4.06187E+10 4.29622E+11 9.44357E+12-8.02287E+10 7.24004E+10-2.81378E+11
 -1       211 4.90965E+12 4.90965E+12 1.14561E+13 4.51195E+06 1.45463E+12-1.07664E+12
 -1       212 5.50075E+11 2.64545E+11 5.86271E+12-2.33242E+11-1.80735E+11-1.71719E+12
 -1       213 6.19996E+11 6.19996E+11 1.44669E+12 2.25953E+06 3.25757E+11-8.93483E+11
 -1       214 7.14513E+10 1.43585E+11 2.10742E+12 4.06543E+11 1.66080E+11-1.36771E+12
 -1       215 8.26270E+10 9.29769E+10 8.36118E+11-1.04396E+09 2.35237E+11-2.65625E+12
 -1       216 2.33724E+11 1.15343E+11 1.22612E+12 5.16319E+10 5.51583E+09-7.07129E+11
 -1       217 1.10006E+10 4.43504E+10 1.93553E+11 6.42811E+10 1.13341E+11-2.52852E+12
 -1       218-4.29319E+11-2.46928E+11 5.08155E+12-9.31103E+10-9.96183E+10-1.09779E+11
 -1       219 2.41861E+11 7.79847E+10 1.15185E+12 1.69332E+09 1.99926E+11-5.69056E+11
 -1       220 5.17104E+10 6.17077E+10 7.44161E+11 4.97024E+10 8.02090E+10-1.66979E+12
 -1       221-2.87613E+10-8.11346E+10 7.66594E+11-7.67103E+10-7.54690E+09-2.04872E+12
 -1       222 3.54456E+08 4.81307E+09 1.01989E+11 8.51190E+09 2.60210E+11-2.21396E+12
 -1       223-1.21107E+11-9.32669E+10-5.87135E+12-1.61964E+10 1.23986E+10-5.73840E+11
 -1       224-1.56724E+10-2.04165E+10-9.14781E+11-1.19045E+10 8.93365E+10-1.97554E+12
 -1       225 5.19717E+10 3.75243E+10-2.33718E+12 1.58921E+10-7.85608E+10-1.43186E+11
 -1       226-1.13894E+11-8.90146E+10-5.43832E+12-7.67080E+09 1.58160E+11-4.68996E+11
 -1       227-3.05975E+10-2.30904E+10-3.30836E+12-1.38030E+10 6.57934E+10-1.30119E+12
 -1       228 3.53251E+09 1.35378E+10-3.63825E+11 1.75277E+10 8.89581E+09-1.72193E+12
 -1       229-2.49528E+09-3.32154E+09-4.44226E+11-3.59485E+09 2.01573E+11-1.74600E+12
 -1       230-7.18767E+10-7.40011E+10-1.08032E+13 2.91680E+09 6.64161E+09-3.43387E+11
 -1       231-1.47447E+10-8.56173E+09-1.67811E+12 7.81344E+09 5.35582E+10-1.18660E+12
 -1       232-6.35498E+10-2.18171E+10-8.35340E+12-1.60308E+10-5.83252E+10-9.16054E+10
 -1       233-5.85405E+10-8.47290E+10-9.99346E+12-5.63973E+09 9.57606E+10-2.78475E+11
 -1       234-4.39394E+10-2.07799E+10-6.15187E+12 2.88260E+09 3.93005E+10-7.84238E+11
 -1       235-4.38714E+09-9.87694E+09-1.29859E+12-1.06845E+10 3.67955E+09-1.21399E+12
 -1       236-4.69924E+09-4.74158E+09-8.25393E+11-2.95778E+09 1.21782E+11-1.04693E+12
 -1       237-9.58756E+10-8.85295E+10-1.30522E+13-1.88774E+09 2.62138E+09-8.05631E+10
 -1       238-1.66301E+10-1.29933E+10-2.02645E+12 3.08131E+09 1.25723E+10-2.73479E+11
 -1       239-4.28674E+10-8.71156E+09-1.19467E+13-1.06883E+10-2.65619E+10-4.22089E+10
 -1       240-8.19280E+10-9.56640E+10-1.20694E+13-6.58903E+09 2.27333E+10-6.58721E+10
 -1       241-4.71380E+10-2.48786E+10-7.44285E+12-1.35627E+09 9.49592E+09-1.81061E+11
 -1       242-3.16498E+09-5.22757E+09-1.85482E+12-4.27103E+09 1.93659E+09-5.60227E+11
 -1       243-4.60876E+09-4.93974E+09-9.98218E+11-3.55581E+09 2.81049E+10-2.41688E+11
 -1       244-7.37160E+10-6.99387E+10-1.24818E+13-3.26895E+08-2.43676E+09 1.67073E+11
 -1       245-1.32970E+10-9.68380E+09-1.93681E+12 3.64918E+09-2.60245E+10 5.75533E+11
 -1       246-4.60823E+10-1.11183E+10-1.27851E+13-1.17205E+10 7.01671E+09 9.22867E+09
 -1       247-6.23090E+10-7.66683E+10-1.15388E+13-5.18068E+09-4.48857E+10 1.35604E+11
 -1       248-3.84528E+10-1.97859E+10-7.13165E+12-8.48150E+07-1.91156E+10 3.79806E+11
 -1       249-3.23551E+09-6.14229E+09-1.98407E+12-5.74794E+09-2.58642E+08 1.19160E+11
 -1       250-3.84901E+09-4.06023E+09-9.56375E+11-2.83388E+09-5.88773E+10 5.07512E+11
 -1       251-3.95805E+10-3.72185E+10-9.59157E+12-2.64658E+08-5.26879E+09 3.39503E+11
 -1       252-7.08528E+09-5.29022E+09-1.48694E+12 1.89466E+09-5.28766E+10 1.16869E+12
 -1       253-3.10791E+10-7.22240E+09-1.10529E+13-7.82157E+09 3.44657E+10 5.19420E+10
 -1       254-3.36422E+10-4.08157E+10-8.86226E+12-2.80317E+09-9.20096E+10 2.75627E+11
 -1       255-2.04251E+10-1.05151E+10-5.49778E+12-9.14467E+07-3.87268E+10 7.71686E+11
 -1       256-2.16049E+09-4.07119E+09-1.71409E+12-3.69830E+09-2.06918E+09 6.75359E+11
 -1       257-2.03335E+09-2.15827E+09-7.37040E+11-1.46671E+09-1.19664E+11 1.03092E+12
 -1       258 1.23262E+10 1.07242E+10-5.44037E+12 2.95458E+08-6.07361E+09 3.87601E+11
 -1       259 1.92860E+09 1.74240E+09-8.40874E+11 2.14993E+08-6.03647E+10 1.34076E+12
 -1       260-9.73631E+09-2.34557E+09-7.52816E+12-2.43400E+09 4.93392E+10 7.39822E+10
 -1       261 1.08761E+10 1.13515E+10-5.01787E+12 7.22402E+08-1.04780E+11 3.14227E+11
 -1       262 5.30748E+09 2.54800E+09-3.15281E+12 3.97162E+08-4.46014E+10 8.84175E+11
 -1       263-4.87874E+08-1.19998E+09-1.16547E+12-1.16131E+09-2.90486E+09 9.71674E+11
 -1       264 3.91358E+08 5.06227E+08-4.22354E+11 6.21048E+08-1.37061E+11 1.18209E+12
 -1       265 6.50571E+10 5.92748E+10-1.54380E+12 2.66897E+09-4.27585E+09 2.85772E+11
 -1       266 1.21762E+10 8.75212E+09-2.31236E+11-2.18393E+09-4.42686E+10 9.69461E+11
 -1       267 1.95361E+10 4.37949E+09-3.49073E+12 5.13641E+09 4.74652E+10 7.13327E+10
 -1       268 5.46500E+10 6.70731E+10-1.40219E+12 5.95665E+09-7.71188E+10 2.32497E+11
 -1       269 3.77270E+10 1.94922E+10-9.51912E+11 1.95011E+09-3.19084E+10 6.42162E+11
 -1       270 1.46417E+09 2.32539E+09-5.37008E+11 1.83317E+09-2.88189E+09 8.95117E+11
 -1       271 4.06624E+09 4.15921E+09-1.25745E+11 3.25275E+09-9.93409E+10 8.55352E+11
 -1       272 1.06860E+11 8.35524E+10 3.07402E+11 6.43639E+09-6.17252E+09 7.44298E+10
 -1       273 1.63874E+10 1.45024E+10 4.63061E+10 7.17858E+09-1.15441E+10 1.75611E+11
 -1       274 4.50229E+10 1.47786E+10-5.67111E+11 9.90265E+09 1.94246E+10 2.19601E+10
 -1       275 9.37319E+10 9.49276E+10 2.83101E+11 1.12740E+10-2.24194E+10 5.39090E+10
 -1       276 6.97886E+10 2.83663E+10 9.16608E+10 8.59824E+09-8.92737E+09 1.36566E+11
 -1       277 5.31463E+09 6.46723E+09-8.40732E+10 6.22217E+09 2.63568E+06 4.08039E+11
 -1       278 5.07157E+09 8.54064E+09 9.60115E+09 1.14263E+10-2.03183E+10 1.40539E+11
 -1       279-6.13317E+12-6.13317E+12-1.43106E+13-3.58100E+04-1.85229E+12-1.17835E+12
 -1       280 1.54540E+11-1.86666E+11-6.83036E+12-2.08355E+11 6.25816E+11-6.58962E+11
 -1       281-2.22476E+12-2.22477E+12-5.19128E+12 3.65912E+06-6.82944E+11-6.86567E+11
 -1       282-4.25532E+11-2.98244E+11-2.69374E+12-2.19024E+11 2.99772E+11-1.80871E+12
 -1       283-6.68524E+12-6.68524E+12-1.55991E+13 1.58336E+06-9.04781E+11-1.91350E+12
 -1       284-7.21144E+11-9.14495E+10-9.20351E+12 3.15971E+11-3.05145E+11-4.70558E+11
 -1       285 1.43579E+11-2.51137E+11-7.87819E+12 2.51205E+09 5.72652E+11-3.69286E+11
 -1       286-2.06246E+11-3.48512E+10-8.46874E+11 3.56617E+10 2.61797E+11-7.54015E+11
 -1       287-2.57695E+10 2.55786E+10-3.59648E+11 5.25036E+10 1.29661E+11-1.70975E+12
 -1       288 3.65575E+11 1.01504E+11-3.50978E+12-6.43106E+10 1.48076E+11-1.55094E+11
 -1       289-2.35251E+11-6.38099E+10-9.49913E+11-1.70050E+10 4.18350E+11-5.78103E+11
 -1       290 9.41867E+10 5.38795E+10 4.05530E+12-1.11867E+10 2.03978E+11-6.08889E+11
 -1       291-9.81243E+08-1.84268E+10 1.47873E+12-1.18550E+10 1.07196E+11-1.33144E+12
 -1       292-4.13658E+10-2.04484E+10 1.61427E+12 1.09765E+10 1.38207E+11-1.82843E+11
 -1       293 1.13041E+11 8.35964E+10 4.56253E+12-2.97674E+09 3.23472E+11-4.76571E+11
 -1       294 4.88405E+10 5.19163E+10 7.46167E+12 2.01461E+09 1.22893E+11-3.64655E+11
 -1       295 1.49071E+10 5.77244E+07 2.79476E+12 5.21724E+09 6.33988E+10-8.02301E+11
 -1       296 5.96919E+10-7.29637E+08 5.76963E+12-1.10723E+10 9.70433E+10-1.20030E+11
 -1       297 5.47283E+10 7.39632E+10 8.35670E+12-7.12158E+09 1.94493E+11-2.82884E+11
 -1       298 6.90016E+10 5.83656E+10 9.01506E+12-1.30385E+09 2.76954E+10-8.51503E+10
 -1       299 1.41876E+10-4.41341E+09 3.38926E+12 1.04418E+09 1.47833E+10-1.84995E+11
 -1       300 4.25384E+10-6.91321E+09 8.25150E+12-7.38232E+09 4.43804E+10-5.51876E+10
 -1       301 7.81839E+10 8.44447E+10 1.00877E+13-6.53194E+09 4.42357E+10-6.68394E+10
 -1       302 5.23450E+10 4.68761E+10 8.62109E+12-2.25784E+08-6.06426E+10 1.77722E+11
 -1       303 1.20920E+10-2.43184E+09 3.25739E+12 1.87054E+09-3.08955E+10 3.89118E+11
 -1       304 4.50649E+10-5.55682E+09 8.83057E+12-8.09525E+09-1.09963E+10 1.25241E+10
 -1       305 5.91342E+10 6.74213E+10 9.63814E+12-5.50737E+09-9.57869E+10 1.37759E+11
 -1       306 2.82321E+10 2.48124E+10 6.62483E+12-1.82797E+08-1.22890E+11 3.61022E+11
 -1       307 6.38833E+09-1.49240E+09 2.52360E+12 9.63401E+08-6.29337E+10 7.90299E+11
 -1       308 3.04974E+10-4.04285E+09 7.63414E+12-5.40230E+09-5.65162E+10 6.85869E+10
 -1       309 3.19915E+10 3.59102E+10 7.39477E+12-2.96269E+09-1.93751E+11 2.80055E+11
 -1       310-9.12005E+09-6.80069E+09 3.75762E+12 2.04070E+08-1.40238E+11 4.12146E+11
 -1       311-1.37776E+09 1.39283E+09 1.47158E+12 1.51193E+08-7.12648E+10 9.05745E+11
 -1       312 9.52268E+09-1.17781E+09 5.19964E+12-1.68115E+09-8.07634E+10 9.77841E+10
 -1       313-1.06647E+10-1.01285E+10 4.17185E+12 6.22082E+08-2.22681E+11 3.19105E+11
 -1       314-4.71234E+10-3.87517E+10 1.06629E+12 1.84344E+09-1.03611E+11 3.03945E+11
 -1       315-1.49483E+10-1.53578E+08 4.87019E+11-1.69813E+08-5.38968E+10 6.57442E+11
 -1       316-1.92312E+10 2.71290E+09 2.41102E+12 3.54768E+09-7.77566E+10 9.42417E+10
 -1       317-5.10558E+10-5.74363E+10 1.13894E+12 5.63095E+09-1.60640E+11 2.36519E+11
 -1       318-8.26309E+10-4.88855E+10-2.12320E+11 4.44556E+09-2.15765E+10 7.72479E+10
 -1       319-3.86857E+10 5.15280E+09 9.16309E+09 4.92578E+09-1.08624E+10 1.37537E+11
 -1       320-4.25464E+10 1.24198E+09 3.91699E+11 6.83968E+09-2.90832E+10 3.08345E+10
 -1       321-8.94851E+10-7.50825E+10-2.68008E+11 8.79982E+09-2.77268E+10 5.42630E+10
 -3
    1PSTEP                        15           1           1          
    1PGM                1.000000E+00                                  
    1PGK                9.976274E+08                                  
    1PHID                         -1                                  
    1PSUBC                         0                                  
    1PMODE                         4                                  
  100CL  104 5026.947094         321                     2    4MODAL      1
 -4  TOSTRAIN    6    1
 -5  EXX         1    4    1    1
 -5  EYY         1    4    2    2
 -5  EZZ         1    4    3    3
 -5  EXY         1    4    1    2
 -5  EYZ         1    4    2    3
 -5  EZX         1    4    3    1
 -1         1 2.26077E-04 1.88194E-04 5.06223E+01 2.21681E-07-1.14666E+01-7.29456E+00
 -1         2 2.69133E-04 2.38067E-04 5.87625E+01-1.20055E-07 4.15022E-01-1.53773E+01
 -1         3-1.37604E+01-1.02555E+01 4.17504E+01-2.42952E-01 3.35394E+00-9.48370E-01
 -1         4-1.07602E+01-8.64801E+00 3.24796E+01 1.28981E+00 3.87410E+00-4.07929E+00
 -1         5-4.35538E-05-4.92371E-05-1.07504E+01 6.56230E-07 2.81324E+00-2.26853E+00
 -1         6-5.57887E-15 9.92262E-16 2.63567E-13-6.24739E-15 1.42565E+00-7.79270E+00
 -1         7 1.44662E-13-2.34646E-13 5.79590E-13 9.34808E-14 2.73607E+00-1.49555E+01
 -1         8 1.87622E+00 2.51742E+00-7.63813E+00 1.32799E+00 1.73502E-01-1.83328E+01
 -1         9-2.27302E-04-2.32446E-04 5.51806E+01-9.80173E-06-5.60102E+00-1.18455E+01
 -1        10-1.32767E+01-1.57175E+01 5.31746E+01 4.60422E-01 1.54897E+00-5.61974E+00
 -1        11-1.22970E+01-9.85355E+00 3.73615E+01-1.55508E-02 3.54499E+00-2.28605E+00
 -1        12-9.84449E+00-1.37426E+01 4.26654E+01-1.95601E+00-1.88899E+00-2.91298E+00
 -1        13-2.42709E-04-2.28499E-04 1.83639E+01-2.26517E-05-4.22775E+00-4.25017E+00
 -1        14-2.94054E-04-2.80110E-04 2.79731E+01 2.55899E-06 1.01190E+00-1.10228E+01
 -1        15-4.75408E+00-5.10429E+00 2.03919E+01-1.18232E-03 3.00829E+00-7.95983E+00
 -1        16-2.24792E+00-3.03590E+00 1.17934E+01 1.35586E+00 1.85573E+00-1.11968E+01
 -1        17 5.12454E-05 5.37963E-05-5.11760E+00-1.39876E-05 2.01659E+00-5.53109E+00
 -1        18-2.24265E-14-1.96010E-13 3.92020E-13 1.08025E-13 1.84242E+00-1.00708E+01
 -1        19 9.33817E-01 8.69746E-01-3.73065E+00 6.46262E-03 1.45623E+00-1.64435E+01
 -1        20 2.87548E+00 2.42894E+00-9.72815E+00-2.51669E+00 1.02812E+00-8.46678E+00
 -1        21-4.42898E-01-1.57137E+00 4.60574E+00 7.28003E-02 2.86362E+00-3.83517E+00
 -1        22-2.77482E-01-1.33850E+00 3.68831E+00-2.20763E-01 1.62065E+00-4.66771E+00
 -1        23 2.03054E-12-6.27255E-13-8.96228E-14 7.10668E-13 2.37871E+00-1.30021E+01
 -1        24 2.87478E-01 8.10269E-02-8.42608E-01-3.97930E-01 7.01634E-01-1.56527E+01
 -1        25-7.87331E+00-6.10113E+00 2.08117E+01-8.68768E-02 2.32023E+00 2.55368E-01
 -1        26-3.27934E-01-1.38923E+00 4.09617E+00 1.05269E-01 2.58979E+00-3.57873E+00
 -1        27-6.60980E+00-4.97508E+00 1.73805E+01 3.98113E-01 9.16661E-01-9.60105E-01
 -1        28-6.73888E-01-8.24757E-01 2.61431E+00 9.63999E-03 2.50738E+00-8.80487E+00
 -1        29-3.54531E-01-6.72400E-01 1.71234E+00-3.25022E-01 8.02661E-01-1.05841E+01
 -1        30 4.74426E-13-3.52128E-13 2.59709E-13 2.65232E-13 1.88070E+00-1.02800E+01
 -1        31 1.50887E-01 1.23286E-01-4.78281E-01-5.26927E-02 1.61083E+00-1.37055E+01
 -1        32 1.11619E+00 1.44040E+00-3.80744E+00 4.74873E-01-4.67189E-02-1.26825E+01
 -1        33 6.73416E+00 6.89469E+00-2.35289E+01-1.34822E-02 2.23736E+00-3.02292E+00
 -1        34 5.42175E+00 5.67127E+00-1.90994E+01 6.92511E-02 1.26272E+00-3.76931E+00
 -1        35-2.63366E-14-1.83016E-12 4.84564E-13 5.61101E-14 1.86920E+00-1.02171E+01
 -1        36-1.26137E+00-1.23200E+00 4.30454E+00 7.36943E-02 5.53035E-01-1.22295E+01
 -1        37 3.16577E+00 2.82722E+00-9.60324E+00 1.98507E-02 1.95014E+00-3.01012E-01
 -1        38 6.09904E+00 6.28131E+00-2.14454E+01 1.84274E-02 2.00245E+00-2.95020E+00
 -1        39 2.47387E+00 2.34438E+00-7.77531E+00-6.79500E-02 8.55566E-01-1.13188E+00
 -1        40 3.40183E+00 3.42979E+00-1.15173E+01-4.07128E-03 1.97740E+00-6.82073E+00
 -1        41 2.09082E+00 2.19881E+00-7.06928E+00 7.33882E-02 6.63592E-01-8.24222E+00
 -1        42-2.34757E-13-1.04363E-12 2.03559E-13 2.95514E-13 1.52678E+00-8.34544E+00
 -1        43-6.27471E-01-6.22356E-01 2.10705E+00 2.22538E-02 1.24783E+00-1.08085E+01
 -1        44-5.17232E-01-5.79170E-01 1.75689E+00-1.08505E-01 5.50693E-02-1.06596E+01
 -1        45 1.29960E+01 1.27868E+01-4.34972E+01 8.84896E-03 1.34387E+00-1.81227E+00
 -1        46 1.05011E+01 1.04821E+01-3.53878E+01-1.24714E-02 7.60764E-01-2.25739E+00
 -1        47-1.26305E-12 1.96062E-12 7.48013E-14-7.10244E-13 1.12373E+00-6.14238E+00
 -1        48-2.33931E+00-2.37759E+00 7.95769E+00-4.83689E-02 3.31551E-01-7.34565E+00
 -1        49 9.91737E+00 1.01031E+01-3.36893E+01-1.21005E-02 1.37488E+00-1.24507E-01
 -1        50 1.17832E+01 1.16641E+01-3.96100E+01 4.40860E-02 1.20400E+00-1.75119E+00
 -1        51 7.95703E+00 8.33107E+00-2.73902E+01 6.85431E-02 6.00744E-01-7.43041E-01
 -1        52 6.35848E+00 6.35991E+00-2.14103E+01-3.34978E-03 1.18568E+00-4.12079E+00
 -1        53 3.92161E+00 4.01354E+00-1.32870E+01-3.22972E-02 3.92468E-01-4.96663E+00
 -1        54-2.03768E-13 5.98133E-14 4.26326E-13-5.01535E-13 1.08050E+00-5.90606E+00
 -1        55-1.16353E+00-1.16327E+00 3.91696E+00 1.83101E-02 7.53887E-01-6.48097E+00
 -1        56-1.84834E+00-1.81436E+00 6.16336E+00 6.61419E-02 2.27781E-02-7.51519E+00
 -1        57 1.56155E+01 1.54924E+01-5.25148E+01 3.48967E-03 3.09724E-01-4.25416E-01
 -1        58 1.26335E+01 1.26993E+01-4.27469E+01 8.07143E-03 1.71448E-01-5.27121E-01
 -1        59-2.74229E-12-3.95371E-13 1.18425E-12-2.84653E-13 2.59295E-01-1.41732E+00
 -1        60-2.83430E+00-2.85681E+00 9.60745E+00-1.90747E-02 7.78288E-02-1.69297E+00
 -1        61 1.43723E+01 1.44421E+01-4.82133E+01-4.83708E-03 6.34474E-01-6.55294E-02
 -1        62 1.41594E+01 1.41206E+01-4.78044E+01 4.04358E-02 2.73840E-01-4.13768E-01
 -1        63 1.15754E+01 1.18815E+01-3.92420E+01 4.57001E-02 2.74736E-01-3.41637E-01
 -1        64 7.70214E+00 7.71334E+00-2.59079E+01-4.02707E-03 2.73719E-01-9.50997E-01
 -1        65 4.76793E+00 4.88308E+00-1.61254E+01-6.46397E-03 9.15157E-02-1.14521E+00
 -1        66-1.30132E-12 1.00897E-12 5.43399E-13 1.66755E-14 4.98807E-01-2.72651E+00
 -1        67-1.41114E+00-1.40909E+00 4.73978E+00 2.20122E-02 1.73982E-01-1.49617E+00
 -1        68-2.64214E+00-2.62938E+00 8.82050E+00 2.64397E-02 1.19884E-02-3.46807E+00
 -1        69 1.49757E+01 1.48534E+01-5.02335E+01 4.13281E-03-6.51809E-01 8.80602E-01
 -1        70 1.21335E+01 1.21674E+01-4.09111E+01 1.39771E-03-3.75407E-01 1.10018E+00
 -1        71 1.60721E-12-1.66392E-12-1.78330E-14 5.99775E-13-5.43794E-01 2.97241E+00
 -1        72-2.71739E+00-2.73976E+00 9.19008E+00-2.25901E-02-1.61104E-01 3.56282E+00
 -1        73 1.53583E+01 1.54567E+01-5.15698E+01-6.50972E-03-1.34953E-01 8.75181E-03
 -1        74 1.35835E+01 1.35322E+01-4.57151E+01 3.40933E-02-5.92967E-01 8.52795E-01
 -1        75 1.23926E+01 1.27059E+01-4.19939E+01 5.01135E-02-6.80725E-02 7.75302E-02
 -1        76 7.39237E+00 7.39952E+00-2.48316E+01-3.20946E-03-5.74773E-01 1.99226E+00
 -1        77 4.59236E+00 4.68227E+00-1.54976E+01-1.15795E-02-1.91258E-01 2.40883E+00
 -1        78-1.17431E-12-5.89556E-13 4.84723E-13 1.64405E-13-1.04428E-01 5.70810E-01
 -1        79-1.35372E+00-1.35241E+00 4.54287E+00 1.75431E-02-3.64478E-01 3.14174E+00
 -1        80-2.82776E+00-2.80976E+00 9.43456E+00 3.55825E-02-1.60112E-03 7.37660E-01
 -1        81 1.15286E+01 1.14678E+01-3.86066E+01 2.14576E-03-1.32357E+00 1.78921E+00
 -1        82 9.36504E+00 9.38621E+00-3.14710E+01 1.13160E-03-7.60750E-01 2.23490E+00
 -1        83-9.10966E-13-3.96905E-15 4.44512E-13 2.12589E-13-1.10501E+00 6.04006E+00
 -1        84-2.09801E+00-2.10912E+00 7.06297E+00-1.17289E-02-3.27332E-01 7.23472E+00
 -1        85 1.32956E+01 1.33603E+01-4.45670E+01-4.18844E-03-7.64865E-01 7.00157E-02
 -1        86 1.04629E+01 1.04387E+01-3.51162E+01 1.83404E-02-1.19941E+00 1.73367E+00
 -1        87 1.07549E+01 1.09687E+01-3.63152E+01 3.34428E-02-3.49862E-01 4.24586E-01
 -1        88 5.71499E+00 5.71921E+00-1.91516E+01-1.66109E-03-1.16754E+00 4.04914E+00
 -1        89 3.57259E+00 3.62138E+00-1.20102E+01-5.96391E-03-3.89589E-01 4.89233E+00
 -1        90 4.53623E-13-5.52322E-13 2.73948E-13-7.35675E-14-5.97928E-01 3.26831E+00
 -1        91-1.04631E+00-1.04554E+00 3.50373E+00 9.07961E-03-7.40779E-01 6.38186E+00
 -1        92-2.44422E+00-2.43239E+00 8.15341E+00 2.28942E-02-1.28092E-02 4.18079E+00
 -1        93 6.59638E+00 6.60268E+00-2.19156E+01 2.43487E-04-1.51845E+00 2.04259E+00
 -1        94 5.40174E+00 5.38739E+00-1.79162E+01-1.26329E-03-8.68140E-01 2.55138E+00
 -1        95 1.17476E-12-4.49920E-13-1.69901E-13 4.03810E-13-1.26674E+00 6.92405E+00
 -1        96-1.20794E+00-1.20679E+00 4.00941E+00-1.33091E-03-3.73687E-01 8.29994E+00
 -1        97 9.07329E+00 9.09738E+00-3.03225E+01-1.31522E-03-1.10045E+00 9.82931E-02
 -1        98 5.99610E+00 5.99278E+00-1.98957E+01-3.85098E-03-1.37850E+00 1.97541E+00
 -1        99 7.38103E+00 7.44727E+00-2.47483E+01 1.04071E-02-4.99964E-01 6.05330E-01
 -1       100 3.30813E+00 3.30425E+00-1.10004E+01 7.03356E-04-1.33875E+00 4.63781E+00
 -1       101 2.11080E+00 2.09365E+00-7.00748E+00-9.35955E-04-4.41163E-01 5.60699E+00
 -1       102 6.66765E-13-2.93418E-13 2.02643E-13 4.11181E-13-8.60371E-01 4.70283E+00
 -1       103-6.04503E-01-6.05214E-01 2.01249E+00-3.84458E-03-8.48475E-01 7.31769E+00
 -1       104-1.66434E+00-1.65993E+00 5.54742E+00 7.18908E-03-1.79825E-02 6.01513E+00
 -1       105 1.93837E+00 2.05423E+00-6.18222E+00-2.47337E-03-1.09794E+00 1.49794E+00
 -1       106 1.69231E+00 1.64049E+00-5.20026E+00-1.14118E-02-6.41403E-01 1.88156E+00
 -1       107 4.43790E-12-3.38445E-15 1.38709E-13 6.58761E-14-9.15699E-01 5.00526E+00
 -1       108-3.75816E-01-3.54619E-01 1.13102E+00 1.35195E-02-2.74044E-01 6.00143E+00
 -1       109 4.24240E+00 4.21326E+00-1.40073E+01 2.07612E-03-1.01375E+00 9.75159E-02
 -1       110 1.78813E+00 1.82763E+00-5.57851E+00-3.48582E-02-9.94439E-01 1.46417E+00
 -1       111 3.53977E+00 3.40393E+00-1.15047E+01-2.19618E-02-4.81350E-01 5.83401E-01
 -1       112 1.05841E+00 1.05526E+00-3.33723E+00 3.68384E-03-9.68713E-01 3.36145E+00
 -1       113 7.66705E-01 6.75119E-01-2.34071E+00 1.05123E-03-3.33647E-01 4.06988E+00
 -1       114 6.25056E-13 1.33664E-13-1.98966E-13-8.14323E-15-7.91833E-01 4.32820E+00
 -1       115-1.93057E-01-1.93633E-01 6.10538E-01-2.01361E-02-6.14968E-01 5.29504E+00
 -1       116-7.70805E-01-7.76136E-01 2.56260E+00-1.13482E-02-1.78403E-02 5.54120E+00
 -1       117-1.12071E-01-4.82872E-02 9.64086E-01 8.12996E-03-1.98885E-01 3.90624E-01
 -1       118 2.03294E-02-1.88570E-01 8.23168E-01-2.75202E-02-1.33569E-01 4.78201E-01
 -1       119 2.72433E-12-1.27173E-12-7.04649E-14 1.46352E-12-1.54897E-01 8.46675E-01
 -1       120 8.83402E-03 2.05031E-02-1.76377E-01-4.44388E-02-7.14636E-02 1.08712E+00
 -1       121 7.83332E-01 7.44331E-01-2.28033E+00 7.04681E-03-4.62116E-01-8.91846E-05
 -1       122-6.40100E-02-1.53169E-01 1.04113E+00-5.44751E-02-1.71642E-01 3.35914E-01
 -1       123 7.63946E-01 4.92875E-01-1.92424E+00-4.23409E-02-1.80039E-01 1.90880E-01
 -1       124 1.07729E-01-9.65590E-03 1.43614E-01 1.29406E-02-1.59164E-01 6.87519E-01
 -1       125 2.04669E-01-6.67123E-02-9.15380E-02-3.04929E-02-6.72435E-02 8.51417E-01
 -1       126 4.23805E-12-8.61184E-13 1.21606E-13 5.32482E-14-3.54768E-01 1.93918E+00
 -1       127 1.76652E-03-1.97087E-02-2.62737E-02-7.07342E-02-1.25780E-01 8.70000E-01
 -1       128-1.36173E-01-1.43309E-01 4.17180E-01-3.85182E-02 1.63161E-05 2.52595E+00
 -1       129-3.12978E-04-2.86812E-04-7.32921E+01 3.20954E-07 1.50222E+01-1.21406E+01
 -1       130-2.69133E-04-2.38067E-04-5.87625E+01 1.20055E-07 4.15022E-01-1.53773E+01
 -1       131 1.37604E+01 1.02555E+01-4.17504E+01 2.42952E-01 3.35394E+00-9.48370E-01
 -1       132 1.47793E+01 1.33204E+01-4.70248E+01 1.86742E+00-2.59813E+00-2.89521E+00
 -1       133 3.47514E-04 3.30373E-04-4.05252E+01-2.79311E-05 9.00485E+00-6.66488E+00
 -1       134 2.94054E-04 2.80110E-04-2.79731E+01-2.55899E-06 1.01190E+00-1.10228E+01
 -1       135 4.75408E+00 5.10429E+00-2.03919E+01 1.18232E-03 3.00829E+00-7.95983E+00
 -1       136 6.13382E+00 7.90138E+00-2.67539E+01 1.44388E+00-1.11884E+00-1.06302E+01
 -1       137 3.29547E-04 3.40425E-04-6.59542E+01-1.90557E-05 7.59790E+00-1.42664E+01
 -1       138 1.32767E+01 1.57175E+01-5.31746E+01-4.60422E-01 1.54897E+00-5.61974E+00
 -1       139 1.42980E+01 1.13870E+01-4.44136E+01 4.96654E-01 4.48193E-01-1.74187E+00
 -1       140 1.57288E+01 1.84212E+01-6.17719E+01-2.83195E+00 3.12257E+00-3.82983E+00
 -1       141 4.42898E-01 1.57137E+00-4.60574E+00-7.28003E-02 2.86362E+00-3.83517E+00
 -1       142 8.03408E-01 1.53624E+00-5.34001E+00-3.19626E-01 3.41456E-02-4.37747E+00
 -1       143 6.73888E-01 8.24757E-01-2.61431E+00-9.63999E-03 2.50738E+00-8.80487E+00
 -1       144 9.05001E-01 8.43113E-01-3.38160E+00-3.07681E-01 4.96532E-01-1.03368E+01
 -1       145 7.87331E+00 6.10113E+00-2.08117E+01 8.68768E-02 2.32023E+00 2.55368E-01
 -1       146 6.05193E-01 1.61966E+00-5.02809E+00-1.04825E-02 1.23764E+00-3.52273E+00
 -1       147 8.95097E+00 7.82188E+00-2.51639E+01 5.76397E-01-6.16684E-01-6.79583E-01
 -1       148-6.73416E+00-6.89469E+00 2.35289E+01 1.34822E-02 2.23736E+00-3.02292E+00
 -1       149-7.94419E+00-8.11653E+00 2.76526E+01 1.00263E-01 7.67534E-02-3.55234E+00
 -1       150-3.40183E+00-3.42979E+00 1.15173E+01 4.07128E-03 1.97740E+00-6.82073E+00
 -1       151-4.61351E+00-4.65998E+00 1.56774E+01 8.54469E-02 4.07292E-01-8.05500E+00
 -1       152-3.16577E+00-2.82722E+00 9.60324E+00-1.98507E-02 1.95014E+00-3.01012E-01
 -1       153-7.35383E+00-7.50785E+00 2.56069E+01 4.74859E-02 9.79085E-01-2.90331E+00
 -1       154-3.53270E+00-3.44327E+00 1.12573E+01-9.83795E-02-4.86329E-01-8.86387E-01
 -1       155-1.29960E+01-1.27868E+01 4.34972E+01-8.84896E-03 1.34387E+00-1.81227E+00
 -1       156-1.51966E+01-1.51834E+01 5.12353E+01-1.80564E-02 4.11147E-02-2.12573E+00
 -1       157-6.35848E+00-6.35991E+00 2.14103E+01 3.34978E-03 1.18568E+00-4.12079E+00
 -1       158-8.60884E+00-8.75221E+00 2.92022E+01-1.78446E-02 2.43289E-01-4.85481E+00
 -1       159-9.91737E+00-1.01031E+01 3.36893E+01 1.21005E-02 1.37488E+00-1.24507E-01
 -1       160-1.41187E+01-1.39565E+01 4.73832E+01 3.49126E-02 5.92803E-01-1.72390E+00
 -1       161-1.16620E+01-1.19203E+01 3.96561E+01 9.92382E-02-3.61061E-01-5.67081E-01
 -1       162-1.56155E+01-1.54924E+01 5.25148E+01-3.48967E-03 3.09724E-01-4.25416E-01
 -1       163-1.83159E+01-1.83614E+01 6.18899E+01 1.16860E-02 1.62276E-02-4.98724E-01
 -1       164-7.70214E+00-7.71334E+00 2.59079E+01 4.02707E-03 2.73719E-01-9.50997E-01
 -1       165-1.04437E+01-1.05815E+01 3.53392E+01 8.39594E-03 5.87842E-02-1.12086E+00
 -1       166-1.43723E+01-1.44421E+01 4.82133E+01 4.83708E-03 6.34474E-01-6.55294E-02
 -1       167-1.69886E+01-1.69035E+01 5.72197E+01 4.07893E-02 1.40730E-01-4.07780E-01
 -1       168-1.68750E+01-1.70865E+01 5.68154E+01 6.61656E-02-1.64431E-01-2.61293E-01
 -1       169-1.49757E+01-1.48534E+01 5.02335E+01-4.13281E-03-6.51809E-01 8.80602E-01
 -1       170-1.75800E+01-1.76034E+01 5.92320E+01 2.02364E-03-1.50847E-02 1.03426E+00
 -1       171-7.39237E+00-7.39952E+00 2.48316E+01 3.20946E-03-5.74773E-01 1.99226E+00
 -1       172-1.00332E+01-1.01488E+01 3.38770E+01 5.25045E-04-1.18335E-01 2.35118E+00
 -1       173-1.53583E+01-1.54567E+01 5.15698E+01 6.50972E-03-1.34953E-01 8.75181E-03
 -1       174-1.62968E+01-1.62079E+01 5.47481E+01 3.20709E-02-2.77864E-01 8.39454E-01
 -1       175-1.80609E+01-1.82773E+01 6.07997E+01 7.25554E-02 4.34368E-02 5.71299E-02
 -1       176-1.15286E+01-1.14678E+01 3.86066E+01-2.14576E-03-1.32357E+00 1.78921E+00
 -1       177-1.35669E+01-1.35816E+01 4.55644E+01 1.63836E-03-3.26163E-02 2.10169E+00
 -1       178-5.71499E+00-5.71921E+00 1.91516E+01 1.66109E-03-1.16754E+00 4.04914E+00
 -1       179-7.77174E+00-7.83308E+00 2.61357E+01 5.66099E-04-2.39737E-01 4.77710E+00
 -1       180-1.32956E+01-1.33603E+01 4.45670E+01 4.18844E-03-7.64865E-01 7.00157E-02
 -1       181-1.25585E+01-1.25141E+01 4.20949E+01 1.73529E-02-5.69583E-01 1.70626E+00
 -1       182-1.56521E+01-1.57998E+01 5.25780E+01 4.84192E-02 2.13359E-01 3.21546E-01
 -1       183-6.59638E+00-6.60268E+00 2.19156E+01-2.43487E-04-1.51845E+00 2.04259E+00
 -1       184-7.81533E+00-7.80541E+00 2.59394E+01-1.82902E-03-3.75985E-02 2.39943E+00
 -1       185-3.30813E+00-3.30425E+00 1.10004E+01-7.03356E-04-1.33875E+00 4.63781E+00
 -1       186-4.52565E+00-4.50856E+00 1.50246E+01-2.45862E-03-2.76104E-01 5.47346E+00
 -1       187-9.07329E+00-9.09738E+00 3.03225E+01 1.31522E-03-1.10045E+00 9.82931E-02
 -1       188-7.20396E+00-7.20690E+00 2.39264E+01-4.47201E-03-6.48636E-01 1.94521E+00
 -1       189-1.07115E+01-1.07572E+01 3.58311E+01 1.50676E-02 3.05433E-01 4.57985E-01
 -1       190-1.93837E+00-2.05423E+00 6.18222E+00 2.47337E-03-1.09794E+00 1.49794E+00
 -1       191-2.43055E+00-2.39475E+00 7.52905E+00-1.65222E-02-2.64695E-02 1.76906E+00
 -1       192-1.05841E+00-1.05526E+00 3.33723E+00-3.68384E-03-9.68713E-01 3.36145E+00
 -1       193-1.51168E+00-1.39880E+00 4.61466E+00-1.20721E-02-1.97528E-01 3.97529E+00
 -1       194-4.24240E+00-4.21326E+00 1.40073E+01-2.07612E-03-1.01375E+00 9.75159E-02
 -1       195-2.16755E+00-2.24445E+00 6.85098E+00-3.68745E-02-4.77402E-01 1.43927E+00
 -1       196-5.07353E+00-4.97971E+00 1.66567E+01-3.17968E-02 2.93832E-01 4.41583E-01
 -1       197 1.12071E-01 4.82872E-02-9.64086E-01-8.12996E-03-1.98885E-01 3.90624E-01
 -1       198 4.96488E-02 1.93934E-01-1.19180E+00-3.98443E-02-3.82108E-02 4.60756E-01
 -1       199-1.07729E-01 9.65590E-03-1.43614E-01-1.29406E-02-1.59164E-01 6.87519E-01
 -1       200-1.60860E-01 9.55646E-02-2.96259E-01-5.32272E-02-5.52647E-02 8.45406E-01
 -1       201-7.83332E-01-7.44331E-01 2.28033E+00-7.04681E-03-4.62116E-01-8.91846E-05
 -1       202 9.36982E-02 8.62963E-02-1.07859E+00-6.97915E-02-1.38787E-01 3.33722E-01
 -1       203-1.00344E+00-8.16214E-01 2.78596E+00-6.13021E-02 1.20248E-01 1.35944E-01
 -1       204 3.12978E-04 2.86812E-04 7.32921E+01-3.20954E-07 1.50222E+01-1.21406E+01
 -1       205-1.47793E+01-1.33204E+01 4.70248E+01-1.86742E+00-2.59813E+00-2.89521E+00
 -1       206 4.35538E-05 4.92371E-05 1.07504E+01-6.56230E-07 2.81324E+00-2.26853E+00
 -1       207-1.87622E+00-2.51742E+00 7.63813E+00-1.32799E+00 1.73502E-01-1.83328E+01
 -1       208-3.29547E-04-3.40425E-04 6.59542E+01 1.90557E-05 7.59790E+00-1.42664E+01
 -1       209-1.57288E+01-1.84212E+01 6.17719E+01 2.83195E+00 3.12257E+00-3.82983E+00
 -1       210-1.42980E+01-1.13870E+01 4.44136E+01-4.96654E-01 4.48193E-01-1.74187E+00
 -1       211-3.47514E-04-3.30373E-04 4.05252E+01 2.79311E-05 9.00485E+00-6.66488E+00
 -1       212-6.13382E+00-7.90138E+00 2.67539E+01-1.44388E+00-1.11884E+00-1.06302E+01
 -1       213-5.12454E-05-5.37963E-05 5.11760E+00 1.39876E-05 2.01659E+00-5.53109E+00
 -1       214-2.87548E+00-2.42894E+00 9.72815E+00 2.51669E+00 1.02812E+00-8.46678E+00
 -1       215-9.33817E-01-8.69746E-01 3.73065E+00-6.46262E-03 1.45623E+00-1.64435E+01
 -1       216-8.03408E-01-1.53624E+00 5.34001E+00 3.19626E-01 3.41456E-02-4.37747E+00
 -1       217-2.87478E-01-8.10269E-02 8.42608E-01 3.97930E-01 7.01634E-01-1.56527E+01
 -1       218-8.95097E+00-7.82188E+00 2.51639E+01-5.76397E-01-6.16684E-01-6.79583E-01
 -1       219-6.05193E-01-1.61966E+00 5.02809E+00 1.04825E-02 1.23764E+00-3.52273E+00
 -1       220-9.05001E-01-8.43113E-01 3.38160E+00 3.07681E-01 4.96532E-01-1.03368E+01
 -1       221-1.11619E+00-1.44040E+00 3.80744E+00-4.74873E-01-4.67189E-02-1.26825E+01
 -1       222-1.50887E-01-1.23286E-01 4.78281E-01 5.26927E-02 1.61083E+00-1.37055E+01
 -1       223 7.94419E+00 8.11653E+00-2.76526E+01-1.00263E-01 7.67534E-02-3.55234E+00
 -1       224 1.26137E+00 1.23200E+00-4.30454E+00-7.36943E-02 5.53035E-01-1.22295E+01
 -1       225 3.53270E+00 3.44327E+00-1.12573E+01 9.83795E-02-4.86329E-01-8.86387E-01
 -1       226 7.35383E+00 7.50785E+00-2.56069E+01-4.74859E-02 9.79085E-01-2.90331E+00
 -1       227 4.61351E+00 4.65998E+00-1.56774E+01-8.54469E-02 4.07292E-01-8.05500E+00
 -1       228 5.17232E-01 5.79170E-01-1.75689E+00 1.08505E-01 5.50693E-02-1.06596E+01
 -1       229 6.27471E-01 6.22356E-01-2.10705E+00-2.22538E-02 1.24783E+00-1.08085E+01
 -1       230 1.51966E+01 1.51834E+01-5.12353E+01 1.80564E-02 4.11147E-02-2.12573E+00
 -1       231 2.33931E+00 2.37759E+00-7.95769E+00 4.83689E-02 3.31551E-01-7.34565E+00
 -1       232 1.16620E+01 1.19203E+01-3.96561E+01-9.92382E-02-3.61061E-01-5.67081E-01
 -1       233 1.41187E+01 1.39565E+01-4.73832E+01-3.49126E-02 5.92803E-01-1.72390E+00
 -1       234 8.60884E+00 8.75221E+00-2.92022E+01 1.78446E-02 2.43289E-01-4.85481E+00
 -1       235 1.84834E+00 1.81436E+00-6.16336E+00-6.61419E-02 2.27781E-02-7.51519E+00
 -1       236 1.16353E+00 1.16327E+00-3.91696E+00-1.83101E-02 7.53887E-01-6.48097E+00
 -1       237 1.83159E+01 1.83614E+01-6.18899E+01-1.16860E-02 1.62276E-02-4.98724E-01
 -1       238 2.83430E+00 2.85681E+00-9.60745E+00 1.90747E-02 7.78288E-02-1.69297E+00
 -1       239 1.68750E+01 1.70865E+01-5.68154E+01-6.61656E-02-1.64431E-01-2.61293E-01
 -1       240 1.69886E+01 1.69035E+01-5.72197E+01-4.07893E-02 1.40730E-01-4.07780E-01
 -1       241 1.04437E+01 1.05815E+01-3.53392E+01-8.39594E-03 5.87842E-02-1.12086E+00
 -1       242 2.64214E+00 2.62938E+00-8.82050E+00-2.64397E-02 1.19884E-02-3.46807E+00
 -1       243 1.41114E+00 1.40909E+00-4.73978E+00-2.20122E-02 1.73982E-01-1.49617E+00
 -1       244 1.75800E+01 1.76034E+01-5.92320E+01-2.02364E-03-1.50847E-02 1.03426E+00
 -1       245 2.71739E+00 2.73976E+00-9.19008E+00 2.25901E-02-1.61104E-01 3.56282E+00
 -1       246 1.80609E+01 1.82773E+01-6.07997E+01-7.25554E-02 4.34368E-02 5.71299E-02
 -1       247 1.62968E+01 1.62079E+01-5.47481E+01-3.20709E-02-2.77864E-01 8.39454E-01
 -1       248 1.00332E+01 1.01488E+01-3.38770E+01-5.25045E-04-1.18335E-01 2.35118E+00
 -1       249 2.82776E+00 2.80976E+00-9.43456E+00-3.55825E-02-1.60112E-03 7.37660E-01
 -1       250 1.35372E+00 1.35241E+00-4.54287E+00-1.75431E-02-3.64478E-01 3.14174E+00
 -1       251 1.35669E+01 1.35816E+01-4.55644E+01-1.63836E-03-3.26163E-02 2.10169E+00
 -1       252 2.09801E+00 2.10912E+00-7.06297E+00 1.17289E-02-3.27332E-01 7.23472E+00
 -1       253 1.56521E+01 1.57998E+01-5.25780E+01-4.84192E-02 2.13359E-01 3.21546E-01
 -1       254 1.25585E+01 1.25141E+01-4.20949E+01-1.73529E-02-5.69583E-01 1.70626E+00
 -1       255 7.77174E+00 7.83308E+00-2.61357E+01-5.66099E-04-2.39737E-01 4.77710E+00
 -1       256 2.44422E+00 2.43239E+00-8.15341E+00-2.28942E-02-1.28092E-02 4.18079E+00
 -1       257 1.04631E+00 1.04554E+00-3.50373E+00-9.07961E-03-7.40779E-01 6.38186E+00
 -1       258 7.81533E+00 7.80541E+00-2.59394E+01 1.82902E-03-3.75985E-02 2.39943E+00
 -1       259 1.20794E+00 1.20679E+00-4.00941E+00 1.33091E-03-3.73687E-01 8.29994E+00
 -1       260 1.07115E+01 1.07572E+01-3.58311E+01-1.50676E-02 3.05433E-01 4.57985E-01
 -1       261 7.20396E+00 7.20690E+00-2.39264E+01 4.47201E-03-6.48636E-01 1.94521E+00
 -1       262 4.52565E+00 4.50856E+00-1.50246E+01 2.45862E-03-2.76104E-01 5.47346E+00
 -1       263 1.66434E+00 1.65993E+00-5.54742E+00-7.18908E-03-1.79825E-02 6.01513E+00
 -1       264 6.04503E-01 6.05214E-01-2.01249E+00 3.84458E-03-8.48475E-01 7.31769E+00
 -1       265 2.43055E+00 2.39475E+00-7.52905E+00 1.65222E-02-2.64695E-02 1.76906E+00
 -1       266 3.75816E-01 3.54619E-01-1.13102E+00-1.35195E-02-2.74044E-01 6.00143E+00
 -1       267 5.07353E+00 4.97971E+00-1.66567E+01 3.17968E-02 2.93832E-01 4.41583E-01
 -1       268 2.16755E+00 2.24445E+00-6.85098E+00 3.68745E-02-4.77402E-01 1.43927E+00
 -1       269 1.51168E+00 1.39880E+00-4.61466E+00 1.20721E-02-1.97528E-01 3.97529E+00
 -1       270 7.70805E-01 7.76136E-01-2.56260E+00 1.13482E-02-1.78403E-02 5.54120E+00
 -1       271 1.93057E-01 1.93633E-01-6.10538E-01 2.01361E-02-6.14968E-01 5.29504E+00
 -1       272-4.96488E-02-1.93934E-01 1.19180E+00 3.98443E-02-3.82108E-02 4.60756E-01
 -1       273-8.83402E-03-2.05031E-02 1.76377E-01 4.44388E-02-7.14636E-02 1.08712E+00
 -1       274 1.00344E+00 8.16214E-01-2.78596E+00 6.13021E-02 1.20248E-01 1.35944E-01
 -1       275-9.36982E-02-8.62963E-02 1.07859E+00 6.97915E-02-1.38787E-01 3.33722E-01
 -1       276 1.60860E-01-9.55646E-02 2.96259E-01 5.32272E-02-5.52647E-02 8.45406E-01
 -1       277 1.36173E-01 1.43309E-01-4.17180E-01 3.85182E-02 1.63161E-05 2.52595E+00
 -1       278-1.76652E-03 1.97087E-02 2.62737E-02 7.07342E-02-1.25780E-01 8.70000E-01
 -1       279-2.26077E-04-1.88194E-04-5.06223E+01-2.21681E-07-1.14666E+01-7.29456E+00
 -1       280 1.07602E+01 8.64801E+00-3.24796E+01-1.28981E+00 3.87410E+00-4.07929E+00
 -1       281 2.42709E-04 2.28499E-04-1.83639E+01 2.26517E-05-4.22775E+00-4.25017E+00
 -1       282 2.24792E+00 3.03590E+00-1.17934E+01-1.35586E+00 1.85573E+00-1.11968E+01
 -1       283 2.27302E-04 2.32446E-04-5.51806E+01 9.80173E-06-5.60102E+00-1.18455E+01
 -1       284 9.84449E+00 1.37426E+01-4.26654E+01 1.95601E+00-1.88899E+00-2.91298E+00
 -1       285 1.22970E+01 9.85355E+00-3.73615E+01 1.55508E-02 3.54499E+00-2.28605E+00
 -1       286 2.77482E-01 1.33850E+00-3.68831E+00 2.20763E-01 1.62065E+00-4.66771E+00
 -1       287 3.54531E-01 6.72400E-01-1.71234E+00 3.25022E-01 8.02661E-01-1.05841E+01
 -1       288 6.60980E+00 4.97508E+00-1.73805E+01-3.98113E-01 9.16661E-01-9.60105E-01
 -1       289 3.27934E-01 1.38923E+00-4.09617E+00-1.05269E-01 2.58979E+00-3.57873E+00
 -1       290-5.42175E+00-5.67127E+00 1.90994E+01-6.92511E-02 1.26272E+00-3.76931E+00
 -1       291-2.09082E+00-2.19881E+00 7.06928E+00-7.33882E-02 6.63592E-01-8.24222E+00
 -1       292-2.47387E+00-2.34438E+00 7.77531E+00 6.79500E-02 8.55566E-01-1.13188E+00
 -1       293-6.09904E+00-6.28131E+00 2.14454E+01-1.84274E-02 2.00245E+00-2.95020E+00
 -1       294-1.05011E+01-1.04821E+01 3.53878E+01 1.24714E-02 7.60764E-01-2.25739E+00
 -1       295-3.92161E+00-4.01354E+00 1.32870E+01 3.22972E-02 3.92468E-01-4.96663E+00
 -1       296-7.95703E+00-8.33107E+00 2.73902E+01-6.85431E-02 6.00744E-01-7.43041E-01
 -1       297-1.17832E+01-1.16641E+01 3.96100E+01-4.40860E-02 1.20400E+00-1.75119E+00
 -1       298-1.26335E+01-1.26993E+01 4.27469E+01-8.07143E-03 1.71448E-01-5.27121E-01
 -1       299-4.76793E+00-4.88308E+00 1.61254E+01 6.46397E-03 9.15157E-02-1.14521E+00
 -1       300-1.15754E+01-1.18815E+01 3.92420E+01-4.57001E-02 2.74736E-01-3.41637E-01
 -1       301-1.41594E+01-1.41206E+01 4.78044E+01-4.04358E-02 2.73840E-01-4.13768E-01
 -1       302-1.21335E+01-1.21674E+01 4.09111E+01-1.39771E-03-3.75407E-01 1.10018E+00
 -1       303-4.59236E+00-4.68227E+00 1.54976E+01 1.15795E-02-1.91258E-01 2.40883E+00
 -1       304-1.23926E+01-1.27059E+01 4.19939E+01-5.01135E-02-6.80725E-02 7.75302E-02
 -1       305-1.35835E+01-1.35322E+01 4.57151E+01-3.40933E-02-5.92967E-01 8.52795E-01
 -1       306-9.36504E+00-9.38621E+00 3.14710E+01-1.13160E-03-7.60750E-01 2.23490E+00
 -1       307-3.57259E+00-3.62138E+00 1.20102E+01 5.96391E-03-3.89589E-01 4.89233E+00
 -1       308-1.07549E+01-1.09687E+01 3.63152E+01-3.34428E-02-3.49862E-01 4.24586E-01
 -1       309-1.04629E+01-1.04387E+01 3.51162E+01-1.83404E-02-1.19941E+00 1.73367E+00
 -1       310-5.40174E+00-5.38739E+00 1.79162E+01 1.26329E-03-8.68140E-01 2.55138E+00
 -1       311-2.11080E+00-2.09365E+00 7.00748E+00 9.35955E-04-4.41163E-01 5.60699E+00
 -1       312-7.38103E+00-7.44727E+00 2.47483E+01-1.04071E-02-4.99964E-01 6.05330E-01
 -1       313-5.99610E+00-5.99278E+00 1.98957E+01 3.85098E-03-1.37850E+00 1.97541E+00
 -1       314-1.69231E+00-1.64049E+00 5.20026E+00 1.14118E-02-6.41403E-01 1.88156E+00
 -1       315-7.66705E-01-6.75119E-01 2.34071E+00-1.05123E-03-3.33647E-01 4.06988E+00
 -1       316-3.53977E+00-3.40393E+00 1.15047E+01 2.19618E-02-4.81350E-01 5.83401E-01
 -1       317-1.78813E+00-1.82763E+00 5.57851E+00 3.48582E-02-9.94439E-01 1.46417E+00
 -1       318-2.03294E-02 1.88570E-01-8.23168E-01 2.75202E-02-1.33569E-01 4.78201E-01
 -1       319-2.04669E-01 6.67123E-02 9.15380E-02 3.04929E-02-6.72435E-02 8.51417E-01
 -1       320-7.63946E-01-4.92875E-01 1.92424E+00 4.23409E-02-1.80039E-01 1.90880E-01
 -1       321 6.40100E-02 1.53169E-01-1.04113E+00 5.44751E-02-1.71642E-01 3.35914E-01
 -3
    1PSTEP                        16           1           1          
    1PGM                1.000000E+00                                  
    1PGK                9.976274E+08                                  
    1PHID                         -1                                  
    1PSUBC                         0                                  
    1PMODE                         4                                  
  100CL  104 5026.947094         321                     2    4MODAL      1
 -4  ERROR       1    1
 -5  STR(%)      1    1    0    0
 -1         1 2.21015E+01
 -1         2 2.21015E+01
 -1         3 2.21015E+01
 -1         4 2.21015E+01
 -1         5 2.21015E+01
 -1         6 2.21015E+01
 -1         7 2.21015E+01
 -1         8 2.21015E+01
 -1         9 2.21015E+01
 -1        10 2.21015E+01
 -1        11 2.21015E+01
 -1        12 2.21015E+01
 -1        13 2.21015E+01
 -1        14 2.21015E+01
 -1        15 2.21015E+01
 -1        16 2.21015E+01
 -1        17 2.21015E+01
 -1        18 2.21015E+01
 -1        19 2.21015E+01
 -1        20 2.21015E+01
 -1        21 1.87293E+01
 -1        22 1.74611E+01
 -1        23 1.87293E+01
 -1        24 1.87293E+01
 -1        25 2.04154E+01
 -1        26 1.80952E+01
 -1        27 1.97813E+01
 -1        28 1.87293E+01
 -1        29 1.80952E+01
 -1        30 2.04154E+01
 -1        31 1.87293E+01
 -1        32 2.04154E+01
 -1        33 1.87293E+01
 -1        34 1.85633E+01
 -1        35 1.87293E+01
 -1        36 1.87293E+01
 -1        37 1.87293E+01
 -1        38 1.86463E+01
 -1        39 1.80122E+01
 -1        40 1.87293E+01
 -1        41 1.86463E+01
 -1        42 1.87293E+01
 -1        43 1.87293E+01
 -1        44 1.87293E+01
 -1        45 2.13344E+01
 -1        46 2.13344E+01
 -1        47 2.13344E+01
 -1        48 2.13344E+01
 -1        49 2.00319E+01
 -1        50 2.13344E+01
 -1        51 1.99488E+01
 -1        52 2.13344E+01
 -1        53 2.13344E+01
 -1        54 2.00319E+01
 -1        55 2.13344E+01
 -1        56 2.00319E+01
 -1        57 2.17580E+01
 -1        58 2.17580E+01
 -1        59 2.17580E+01
 -1        60 2.17580E+01
 -1        61 2.15462E+01
 -1        62 2.17580E+01
 -1        63 2.15462E+01
 -1        64 2.17580E+01
 -1        65 2.17580E+01
 -1        66 2.15462E+01
 -1        67 2.17580E+01
 -1        68 2.15462E+01
 -1        69 2.17580E+01
 -1        70 2.17580E+01
 -1        71 2.17580E+01
 -1        72 2.17580E+01
 -1        73 2.17580E+01
 -1        74 2.17580E+01
 -1        75 2.17580E+01
 -1        76 2.17580E+01
 -1        77 2.17580E+01
 -1        78 2.17580E+01
 -1        79 2.17580E+01
 -1        80 2.17580E+01
 -1        81 2.07137E+01
 -1        82 2.07137E+01
 -1        83 2.07137E+01
 -1        84 2.07137E+01
 -1        85 2.12359E+01
 -1        86 2.07137E+01
 -1        87 2.12359E+01
 -1        88 2.07137E+01
 -1        89 2.07137E+01
 -1        90 2.12359E+01
 -1        91 2.07137E+01
 -1        92 2.12359E+01
 -1        93 1.89215E+01
 -1        94 1.89215E+01
 -1        95 1.89215E+01
 -1        96 1.89215E+01
 -1        97 1.98176E+01
 -1        98 1.89215E+01
 -1        99 1.98176E+01
 -1       100 1.89215E+01
 -1       101 1.89215E+01
 -1       102 1.98176E+01
 -1       103 1.89215E+01
 -1       104 1.98176E+01
 -1       105 2.21395E+01
 -1       106 2.21395E+01
 -1       107 2.21395E+01
 -1       108 2.21395E+01
 -1       109 2.05305E+01
 -1       110 2.21395E+01
 -1       111 2.05305E+01
 -1       112 2.21395E+01
 -1       113 2.21395E+01
 -1       114 2.05305E+01
 -1       115 2.21395E+01
 -1       116 2.05305E+01
 -1       117 2.21395E+01
 -1       118 2.21395E+01
 -1       119 2.21395E+01
 -1       120 2.21395E+01
 -1       121 2.21395E+01
 -1       122 2.21395E+01
 -1       123 2.21395E+01
 -1       124 2.21395E+01
 -1       125 2.21395E+01
 -1       126 2.21395E+01
 -1       127 2.21395E+01
 -1       128 2.21395E+01
 -1       129 1.91171E+01
 -1       130 2.21015E+01
 -1       131 2.21015E+01
 -1       132 1.91171E+01
 -1       133 2.06094E+01
 -1       134 2.21015E+01
 -1       135 2.21015E+01
 -1       136 2.06094E+01
 -1       137 2.06094E+01
 -1       138 2.21015E+01
 -1       139 2.06094E+01
 -1       140 1.91171E+01
 -1       141 1.87293E+01
 -1       142 1.87293E+01
 -1       143 1.87293E+01
 -1       144 1.87293E+01
 -1       145 2.04154E+01
 -1       146 1.87293E+01
 -1       147 1.89232E+01
 -1       148 1.87293E+01
 -1       149 1.87293E+01
 -1       150 1.87293E+01
 -1       151 1.87293E+01
 -1       152 1.87293E+01
 -1       153 1.87293E+01
 -1       154 1.87293E+01
 -1       155 2.13344E+01
 -1       156 1.83481E+01
 -1       157 2.13344E+01
 -1       158 1.98413E+01
 -1       159 2.00319E+01
 -1       160 1.98413E+01
 -1       161 1.85387E+01
 -1       162 2.17580E+01
 -1       163 1.84542E+01
 -1       164 2.17580E+01
 -1       165 2.01061E+01
 -1       166 2.15462E+01
 -1       167 2.01061E+01
 -1       168 1.84012E+01
 -1       169 2.17580E+01
 -1       170 1.84542E+01
 -1       171 2.17580E+01
 -1       172 2.01061E+01
 -1       173 2.17580E+01
 -1       174 2.01061E+01
 -1       175 1.84542E+01
 -1       176 2.07137E+01
 -1       177 1.82485E+01
 -1       178 2.07137E+01
 -1       179 1.94811E+01
 -1       180 2.12359E+01
 -1       181 1.94811E+01
 -1       182 1.83514E+01
 -1       183 1.89215E+01
 -1       184 1.75591E+01
 -1       185 1.89215E+01
 -1       186 1.82403E+01
 -1       187 1.98176E+01
 -1       188 1.82403E+01
 -1       189 1.79038E+01
 -1       190 2.21395E+01
 -1       191 2.19616E+01
 -1       192 2.21395E+01
 -1       193 2.20505E+01
 -1       194 2.05305E+01
 -1       195 2.20505E+01
 -1       196 1.97604E+01
 -1       197 2.21395E+01
 -1       198 2.19616E+01
 -1       199 2.21395E+01
 -1       200 2.20505E+01
 -1       201 2.21395E+01
 -1       202 2.20505E+01
 -1       203 2.19616E+01
 -1       204 1.91171E+01
 -1       205 1.91171E+01
 -1       206 2.21015E+01
 -1       207 2.21015E+01
 -1       208 2.06094E+01
 -1       209 1.91171E+01
 -1       210 2.06094E+01
 -1       211 2.06094E+01
 -1       212 2.06094E+01
 -1       213 2.21015E+01
 -1       214 2.21015E+01
 -1       215 2.21015E+01
 -1       216 1.87293E+01
 -1       217 1.87293E+01
 -1       218 1.89232E+01
 -1       219 1.87293E+01
 -1       220 1.87293E+01
 -1       221 2.04154E+01
 -1       222 1.87293E+01
 -1       223 1.87293E+01
 -1       224 1.87293E+01
 -1       225 1.87293E+01
 -1       226 1.87293E+01
 -1       227 1.87293E+01
 -1       228 1.87293E+01
 -1       229 1.87293E+01
 -1       230 1.83481E+01
 -1       231 2.13344E+01
 -1       232 1.85387E+01
 -1       233 1.98413E+01
 -1       234 1.98413E+01
 -1       235 2.00319E+01
 -1       236 2.13344E+01
 -1       237 1.84542E+01
 -1       238 2.17580E+01
 -1       239 1.84012E+01
 -1       240 2.01061E+01
 -1       241 2.01061E+01
 -1       242 2.15462E+01
 -1       243 2.17580E+01
 -1       244 1.84542E+01
 -1       245 2.17580E+01
 -1       246 1.84542E+01
 -1       247 2.01061E+01
 -1       248 2.01061E+01
 -1       249 2.17580E+01
 -1       250 2.17580E+01
 -1       251 1.82485E+01
 -1       252 2.07137E+01
 -1       253 1.83514E+01
 -1       254 1.94811E+01
 -1       255 1.94811E+01
 -1       256 2.12359E+01
 -1       257 2.07137E+01
 -1       258 1.75591E+01
 -1       259 1.89215E+01
 -1       260 1.79038E+01
 -1       261 1.82403E+01
 -1       262 1.82403E+01
 -1       263 1.98176E+01
 -1       264 1.89215E+01
 -1       265 2.19616E+01
 -1       266 2.21395E+01
 -1       267 1.97604E+01
 -1       268 2.20505E+01
 -1       269 2.20505E+01
 -1       270 2.05305E+01
 -1       271 2.21395E+01
 -1       272 2.19616E+01
 -1       273 2.21395E+01
 -1       274 2.19616E+01
 -1       275 2.20505E+01
 -1       276 2.20505E+01
 -1       277 2.21395E+01
 -1       278 2.21395E+01
 -1       279 2.21015E+01
 -1       280 2.21015E+01
 -1       281 2.21015E+01
 -1       282 2.21015E+01
 -1       283 2.21015E+01
 -1       284 2.21015E+01
 -1       285 2.21015E+01
 -1       286 1.74611E+01
 -1       287 1.80952E+01
 -1       288 1.97813E+01
 -1       289 1.80952E+01
 -1       290 1.85633E+01
 -1       291 1.86463E+01
 -1       292 1.80122E+01
 -1       293 1.86463E+01
 -1       294 2.13344E+01
 -1       295 2.13344E+01
 -1       296 1.99488E+01
 -1       297 2.13344E+01
 -1       298 2.17580E+01
 -1       299 2.17580E+01
 -1       300 2.15462E+01
 -1       301 2.17580E+01
 -1       302 2.17580E+01
 -1       303 2.17580E+01
 -1       304 2.17580E+01
 -1       305 2.17580E+01
 -1       306 2.07137E+01
 -1       307 2.07137E+01
 -1       308 2.12359E+01
 -1       309 2.07137E+01
 -1       310 1.89215E+01
 -1       311 1.89215E+01
 -1       312 1.98176E+01
 -1       313 1.89215E+01
 -1       314 2.21395E+01
 -1       315 2.21395E+01
 -1       316 2.05305E+01
 -1       317 2.21395E+01
 -1       318 2.21395E+01
 -1       319 2.21395E+01
 -1       320 2.21395E+01
 -1       321 2.21395E+01
 -3
    1PSTEP                        17           1           1          
    1PGM                1.000000E+00                                  
    1PGK                2.192810E+09                                  
    1PHID                         -1                                  
    1PSUBC                         0                                  
    1PMODE                         5                                  
  100CL  105 7452.820500         321                     2    5MODAL      1
 -4  DISP        4    1
 -5  D1          1    2    1    0
 -5  D2          1    2    2    0
 -5  D3          1    2    3    0
 -5  ALL         1    2    0    0    1ALL
 -1         1 0.00000E+00 0.00000E+00 0.00000E+00
 -1         2 0.00000E+00 0.00000E+00 0.00000E+00
 -1         3 3.13083E-14-9.22319E-01-1.93734E-14
 -1         4 9.15782E-01-9.15782E-01-9.72555E-14
 -1         5 0.00000E+00 0.00000E+00 0.00000E+00
 -1         6 0.00000E+00 0.00000E+00 0.00000E+00
 -1         7 3.10862E-14 8.61533E-14-1.11022E-15
 -1         8 9.22319E-01 9.14824E-14-7.99361E-14
 -1         9 0.00000E+00 0.00000E+00 0.00000E+00
 -1        10 1.25455E-14-4.48409E-01-1.15741E-14
 -1        11 4.59843E-01-9.18464E-01-8.53654E-02
 -1        12 4.30322E-01-4.30322E-01-5.05151E-14
 -1        13 0.00000E+00 0.00000E+00 0.00000E+00
 -1        14 0.00000E+00 0.00000E+00 0.00000E+00
 -1        15 3.01981E-14-4.60062E-01-9.21485E-15
 -1        16 9.18464E-01-4.59843E-01 8.53654E-02
 -1        17 0.00000E+00 0.00000E+00 0.00000E+00
 -1        18 1.11022E-14 2.19269E-14-2.77556E-16
 -1        19 4.60062E-01 8.61533E-14-3.97460E-14
 -1        20 4.48409E-01 2.87548E-14-3.86358E-14
 -1        21 7.63833E-14-1.88138E+00-1.77636E-14
 -1        22 1.88370E+00-1.88370E+00-1.59206E-13
 -1        23 7.68274E-14 3.21521E-13-2.22045E-15
 -1        24 1.88138E+00 3.26850E-13-1.45439E-13
 -1        25 5.41789E-14-1.40787E+00-2.04281E-14
 -1        26 9.40800E-01-1.88288E+00-6.40362E-02
 -1        27 1.41189E+00-1.41189E+00-1.33005E-13
 -1        28 7.81597E-14-9.41298E-01-8.88178E-15
 -1        29 1.88288E+00-9.40800E-01 6.40362E-02
 -1        30 5.37348E-14 1.86962E-13-8.88178E-16
 -1        31 9.41298E-01 3.23297E-13-7.21645E-14
 -1        32 1.40787E+00 1.92291E-13-1.13687E-13
 -1        33 1.01807E-13-2.78416E+00-8.88178E-16
 -1        34 2.78471E+00-2.78471E+00-1.66978E-13
 -1        35 1.01252E-13 6.63691E-13-4.44089E-16
 -1        36 2.78416E+00 6.65801E-13-1.66755E-13
 -1        37 9.23706E-14-2.33955E+00-1.24345E-14
 -1        38 1.39249E+00-2.78438E+00-6.37970E-02
 -1        39 2.34000E+00-2.34000E+00-1.70974E-13
 -1        40 1.00586E-13-1.39199E+00-8.88178E-16
 -1        41 2.78438E+00-1.39249E+00 6.37970E-02
 -1        42 9.19265E-14 4.87832E-13-1.77636E-15
 -1        43 1.39199E+00 6.63025E-13-8.39329E-14
 -1        44 2.33955E+00 4.88720E-13-1.62981E-13
 -1        45 7.91034E-14-3.61947E+00 2.70894E-14
 -1        46 3.62102E+00-3.62102E+00-1.27010E-13
 -1        47 7.79654E-14 9.90985E-13-2.66454E-15
 -1        48 3.61947E+00 9.83214E-13-1.55431E-13
 -1        49 9.28424E-14-3.21189E+00 1.42109E-14
 -1        50 1.81017E+00-3.62035E+00-5.72023E-02
 -1        51 3.21320E+00-3.21320E+00-1.50102E-13
 -1        52 7.79377E-14-1.80992E+00 1.24345E-14
 -1        53 3.62035E+00-1.81017E+00 5.72023E-02
 -1        54 9.36959E-14 8.28670E-13-8.88178E-16
 -1        55 1.80992E+00 9.89431E-13-7.77156E-14
 -1        56 3.21189E+00 8.30447E-13-1.65201E-13
 -1        57-1.74305E-14-4.36461E+00 6.30607E-14
 -1        58 4.36628E+00-4.36628E+00-5.50671E-14
 -1        59-1.53211E-14 1.29008E-12 0.00000E+00
 -1        60 4.36461E+00 1.28120E-12-1.18128E-13
 -1        61 3.81917E-14-4.00448E+00 4.21885E-14
 -1        62 2.18288E+00-4.36552E+00-5.01656E-02
 -1        63 4.00606E+00-4.00606E+00-9.41469E-14
 -1        64-1.67644E-14-2.18244E+00 2.97540E-14
 -1        65 4.36552E+00-2.18288E+00 5.01656E-02
 -1        66 4.05231E-14 1.15198E-12-1.77636E-15
 -1        67 2.18244E+00 1.28297E-12-5.63993E-14
 -1        68 4.00448E+00 1.14966E-12-1.40332E-13
 -1        69-1.74444E-13-5.00130E+00 6.17284E-14
 -1        70 5.00327E+00-5.00327E+00 1.42109E-14
 -1        71-1.71474E-13 1.46860E-12 4.44089E-16
 -1        72 5.00130E+00 1.46749E-12-4.35207E-14
 -1        73-9.58122E-14-4.69757E+00 6.83897E-14
 -1        74 2.50129E+00-5.00238E+00-4.16915E-02
 -1        75 4.69941E+00-4.69941E+00-1.37668E-14
 -1        76-1.75693E-13-2.50083E+00 2.93099E-14
 -1        77 5.00238E+00-2.50129E+00 4.16915E-02
 -1        78-9.76996E-14 1.39710E-12 0.00000E+00
 -1        79 2.50083E+00 1.47349E-12-2.15383E-14
 -1        80 4.69757E+00 1.39133E-12-8.26006E-14
 -1        81-2.66454E-13-5.51371E+00 1.46549E-14
 -1        82 5.51585E+00-5.51585E+00 6.56697E-14
 -1        83-2.69340E-13 1.46327E-12-2.10942E-15
 -1        84 5.51371E+00 1.45794E-12 4.83225E-14
 -1        85-2.31037E-13-5.27391E+00 3.99680E-14
 -1        86 2.75757E+00-5.51488E+00-3.22040E-02
 -1        87 5.27599E+00-5.27599E+00 4.49640E-14
 -1        88-2.68674E-13-2.75705E+00 6.32827E-15
 -1        89 5.51488E+00-2.75757E+00 3.22040E-02
 -1        90-2.33147E-13 1.49009E-12 0.00000E+00
 -1        91 2.75705E+00 1.46061E-12 2.27596E-14
 -1        92 5.27391E+00 1.48226E-12 2.99760E-15
 -1        93-2.44915E-13-5.88911E+00-3.77476E-14
 -1        94 5.89143E+00-5.89143E+00 9.61453E-14
 -1        95-2.54241E-13 1.27276E-12 3.33067E-16
 -1        96 5.88911E+00 1.26432E-12 1.26843E-13
 -1        97-2.67564E-13-5.71919E+00-1.02834E-14
 -1        98 2.94532E+00-5.89038E+00-2.19744E-02
 -1        99 5.72143E+00-5.72143E+00 7.51621E-14
 -1       100-2.45359E-13-2.94477E+00-1.77636E-14
 -1       101 5.89038E+00-2.94532E+00 2.19744E-02
 -1       102-2.69118E-13 1.39000E-12-1.94289E-15
 -1       103 2.94477E+00 1.27098E-12 6.16035E-14
 -1       104 5.71919E+00 1.37890E-12 8.74578E-14
 -1       105-1.30729E-13-6.11798E+00-7.63833E-14
 -1       106 6.12039E+00-6.12039E+00 9.17044E-14
 -1       107-1.29619E-13 9.39998E-13-2.55351E-15
 -1       108 6.11798E+00 9.31005E-13 1.67866E-13
 -1       109-1.95621E-13-6.02232E+00-5.41789E-14
 -1       110 3.05978E+00-6.11930E+00-1.09045E-02
 -1       111 6.02474E+00-6.02474E+00 9.94760E-14
 -1       112-1.34059E-13-3.05921E+00-3.81917E-14
 -1       113 6.11930E+00-3.05978E+00 1.09045E-02
 -1       114-1.97398E-13 1.11422E-12-1.11022E-15
 -1       115 3.05921E+00 9.39415E-13 8.10185E-14
 -1       116 6.02232E+00 1.11045E-12 1.58096E-13
 -1       117 6.21725E-14-6.19544E+00-9.28146E-14
 -1       118 6.19835E+00-6.19835E+00 6.08402E-14
 -1       119 6.30607E-14 5.97300E-13-3.77476E-15
 -1       120 6.19544E+00 5.92415E-13 1.72390E-13
 -1       121-3.24185E-14-6.17594E+00-9.19265E-14
 -1       122 3.09890E+00-6.19697E+00-9.22476E-04
 -1       123 6.17802E+00-6.17802E+00 7.90479E-14
 -1       124 6.30607E-14-3.09788E+00-4.88498E-14
 -1       125 6.19697E+00-3.09890E+00 9.22476E-04
 -1       126-3.50830E-14 7.68274E-13-2.22045E-15
 -1       127 3.09788E+00 5.92415E-13 8.48766E-14
 -1       128 6.17594E+00 7.66942E-13 1.68532E-13
 -1       129 0.00000E+00 0.00000E+00 0.00000E+00
 -1       130 0.00000E+00 0.00000E+00 0.00000E+00
 -1       131 3.15303E-14 9.22319E-01 1.82077E-14
 -1       132 9.15782E-01 9.15782E-01-6.03961E-14
 -1       133 0.00000E+00 0.00000E+00 0.00000E+00
 -1       134 0.00000E+00 0.00000E+00 0.00000E+00
 -1       135 3.01981E-14 4.60062E-01 8.21565E-15
 -1       136 9.18464E-01 4.59843E-01-8.53654E-02
 -1       137 0.00000E+00 0.00000E+00 0.00000E+00
 -1       138 1.24345E-14 4.48409E-01 1.02141E-14
 -1       139 4.59843E-01 9.18464E-01 8.53654E-02
 -1       140 4.30322E-01 4.30322E-01-2.77556E-14
 -1       141 7.37188E-14 1.88138E+00 1.50990E-14
 -1       142 1.88370E+00 1.88370E+00-1.27676E-13
 -1       143 7.68274E-14 9.41298E-01 7.54952E-15
 -1       144 1.88288E+00 9.40800E-01-6.40362E-02
 -1       145 5.37348E-14 1.40787E+00 1.90958E-14
 -1       146 9.40800E-01 1.88288E+00 6.40362E-02
 -1       147 1.41189E+00 1.41189E+00-9.59233E-14
 -1       148 1.00475E-13 2.78416E+00-3.55271E-15
 -1       149 2.78471E+00 2.78471E+00-1.69420E-13
 -1       150 1.02141E-13 1.39199E+00-3.10862E-15
 -1       151 2.78438E+00 1.39249E+00-6.37970E-02
 -1       152 9.10383E-14 2.33955E+00 7.99361E-15
 -1       153 1.39249E+00 2.78438E+00 6.37970E-02
 -1       154 2.34000E+00 2.34000E+00-1.53877E-13
 -1       155 7.35523E-14 3.61947E+00-2.84217E-14
 -1       156 3.62102E+00 3.62102E+00-1.84297E-13
 -1       157 7.57727E-14 1.80992E+00-1.59872E-14
 -1       158 3.62035E+00 1.81017E+00-5.72023E-02
 -1       159 9.40081E-14 3.21189E+00-1.64313E-14
 -1       160 1.81017E+00 3.62035E+00 5.72023E-02
 -1       161 3.21320E+00 3.21320E+00-1.74083E-13
 -1       162-2.00950E-14 4.36461E+00-6.39488E-14
 -1       163 4.36628E+00 4.36628E+00-1.77636E-13
 -1       164-1.70974E-14 2.18244E+00-2.97540E-14
 -1       165 4.36552E+00 2.18288E+00-5.01656E-02
 -1       166 3.90243E-14 4.00448E+00-4.70735E-14
 -1       167 2.18288E+00 4.36552E+00 5.01656E-02
 -1       168 4.00606E+00 4.00606E+00-1.90070E-13
 -1       169-1.70419E-13 5.00130E+00-6.10623E-14
 -1       170 5.00327E+00 5.00327E+00-1.05943E-13
 -1       171-1.70530E-13 2.50083E+00-2.88658E-14
 -1       172 5.00238E+00 2.50129E+00-4.16915E-02
 -1       173-9.64229E-14 4.69757E+00-7.14984E-14
 -1       174 2.50129E+00 5.00238E+00 4.16915E-02
 -1       175 4.69941E+00 4.69941E+00-1.52323E-13
 -1       176-2.68230E-13 5.51371E+00-1.70974E-14
 -1       177 5.51585E+00 5.51585E+00 2.87548E-14
 -1       178-2.71116E-13 2.75705E+00-8.43769E-15
 -1       179 5.51488E+00 2.75757E+00-3.22040E-02
 -1       180-2.29150E-13 5.27391E+00-3.97460E-14
 -1       181 2.75757E+00 5.51488E+00 3.22040E-02
 -1       182 5.27599E+00 5.27599E+00-4.41591E-14
 -1       183-2.42695E-13 5.88911E+00 3.52218E-14
 -1       184 5.89143E+00 5.89143E+00 1.61982E-13
 -1       185-2.46692E-13 2.94477E+00 1.64591E-14
 -1       186 5.89038E+00 2.94532E+00-2.19744E-02
 -1       187-2.69118E-13 5.71919E+00 7.99361E-15
 -1       188 2.94532E+00 5.89038E+00 2.19744E-02
 -1       189 5.72143E+00 5.72143E+00 1.01197E-13
 -1       190-1.28730E-13 6.11798E+00 7.23865E-14
 -1       191 6.12039E+00 6.12039E+00 2.46025E-13
 -1       192-1.25067E-13 3.05921E+00 3.55826E-14
 -1       193 6.11930E+00 3.05978E+00-1.09045E-02
 -1       194-1.94733E-13 6.02232E+00 5.55112E-14
 -1       195 3.05978E+00 6.11930E+00 1.09045E-02
 -1       196 6.02474E+00 6.02474E+00 2.08500E-13
 -1       197 5.50671E-14 6.19544E+00 9.05942E-14
 -1       198 6.19835E+00 6.19835E+00 2.68230E-13
 -1       199 5.68434E-14 3.09788E+00 4.11893E-14
 -1       200 6.19697E+00 3.09890E+00-9.22476E-04
 -1       201-4.10783E-14 6.17594E+00 8.43769E-14
 -1       202 3.09890E+00 6.19697E+00 9.22476E-04
 -1       203 6.17802E+00 6.17802E+00 2.63789E-13
 -1       204 0.00000E+00 0.00000E+00 0.00000E+00
 -1       205-9.15782E-01-9.15782E-01 5.87308E-14
 -1       206 0.00000E+00 0.00000E+00 0.00000E+00
 -1       207-9.22319E-01 9.05942E-14 7.88258E-14
 -1       208 0.00000E+00 0.00000E+00 0.00000E+00
 -1       209-4.30322E-01-4.30322E-01 2.75335E-14
 -1       210-4.59843E-01-9.18464E-01 8.53654E-02
 -1       211 0.00000E+00 0.00000E+00 0.00000E+00
 -1       212-9.18464E-01-4.59843E-01-8.53654E-02
 -1       213 0.00000E+00 0.00000E+00 0.00000E+00
 -1       214-4.48409E-01 2.88103E-14 3.74423E-14
 -1       215-4.60062E-01 8.59313E-14 3.84137E-14
 -1       216-1.88370E+00-1.88370E+00 1.25677E-13
 -1       217-1.88138E+00 3.24407E-13 1.41220E-13
 -1       218-1.41189E+00-1.41189E+00 9.15934E-14
 -1       219-9.40800E-01-1.88288E+00 6.40362E-02
 -1       220-1.88288E+00-9.40800E-01-6.40362E-02
 -1       221-1.40787E+00 1.92291E-13 1.13465E-13
 -1       222-9.41298E-01 3.21965E-13 6.79456E-14
 -1       223-2.78471E+00-2.78471E+00 1.64313E-13
 -1       224-2.78416E+00 6.63025E-13 1.62537E-13
 -1       225-2.34000E+00-2.34000E+00 1.49214E-13
 -1       226-1.39249E+00-2.78438E+00 6.37970E-02
 -1       227-2.78438E+00-1.39249E+00-6.37970E-02
 -1       228-2.33955E+00 4.86944E-13 1.58984E-13
 -1       229-1.39199E+00 6.64802E-13 7.86038E-14
 -1       230-3.62102E+00-3.62102E+00 1.80078E-13
 -1       231-3.61947E+00 9.89431E-13 1.52545E-13
 -1       232-3.21320E+00-3.21320E+00 1.69642E-13
 -1       233-1.81017E+00-3.62035E+00 5.72023E-02
 -1       234-3.62035E+00-1.81017E+00-5.72023E-02
 -1       235-3.21189E+00 8.29559E-13 1.58984E-13
 -1       236-1.80992E+00 9.90763E-13 7.54952E-14
 -1       237-4.36628E+00-4.36628E+00 1.77414E-13
 -1       238-4.36461E+00 1.28564E-12 1.14797E-13
 -1       239-4.00606E+00-4.00606E+00 1.89182E-13
 -1       240-2.18288E+00-4.36552E+00 5.01656E-02
 -1       241-4.36552E+00-2.18288E+00-5.01656E-02
 -1       242-4.00448E+00 1.14719E-12 1.39222E-13
 -1       243-2.18244E+00 1.28786E-12 5.63993E-14
 -1       244-5.00327E+00-5.00327E+00 1.03029E-13
 -1       245-5.00130E+00 1.46239E-12 4.30767E-14
 -1       246-4.69941E+00-4.69941E+00 1.46549E-13
 -1       247-2.50129E+00-5.00238E+00 4.16915E-02
 -1       248-5.00238E+00-2.50129E+00-4.16915E-02
 -1       249-4.69757E+00 1.39222E-12 8.39329E-14
 -1       250-2.50083E+00 1.46549E-12 2.17604E-14
 -1       251-5.51585E+00-5.51585E+00-3.01981E-14
 -1       252-5.51371E+00 1.45550E-12-4.75175E-14
 -1       253-5.27599E+00-5.27599E+00 3.73035E-14
 -1       254-2.75757E+00-5.51488E+00 3.22040E-02
 -1       255-5.51488E+00-2.75757E+00-3.22040E-02
 -1       256-5.27391E+00 1.48412E-12-3.10862E-15
 -1       257-2.75705E+00 1.45794E-12-2.44249E-14
 -1       258-5.89143E+00-5.89143E+00-1.67200E-13
 -1       259-5.88911E+00 1.27498E-12-1.27787E-13
 -1       260-5.72143E+00-5.72143E+00-1.02696E-13
 -1       261-2.94532E+00-5.89038E+00 2.19744E-02
 -1       262-5.89038E+00-2.94532E+00-2.19744E-02
 -1       263-5.71919E+00 1.38378E-12-8.94840E-14
 -1       264-2.94477E+00 1.27542E-12-6.29496E-14
 -1       265-6.12039E+00-6.12039E+00-2.42473E-13
 -1       266-6.11798E+00 9.39249E-13-1.71863E-13
 -1       267-6.02474E+00-6.02474E+00-2.12275E-13
 -1       268-3.05978E+00-6.11930E+00 1.09045E-02
 -1       269-6.11930E+00-3.05978E+00-1.09045E-02
 -1       270-6.02232E+00 1.11378E-12-1.56986E-13
 -1       271-3.05921E+00 9.38916E-13-8.39329E-14
 -1       272-6.19835E+00-6.19835E+00-2.62013E-13
 -1       273-6.19544E+00 5.99520E-13-1.70086E-13
 -1       274-6.17802E+00-6.17802E+00-2.52243E-13
 -1       275-3.09890E+00-6.19697E+00 9.22476E-04
 -1       276-6.19697E+00-3.09890E+00-9.22476E-04
 -1       277-6.17594E+00 7.62945E-13-1.70530E-13
 -1       278-3.09788E+00 5.99076E-13-8.70415E-14
 -1       279 0.00000E+00 0.00000E+00 0.00000E+00
 -1       280-9.15782E-01 9.15782E-01 9.61453E-14
 -1       281 0.00000E+00 0.00000E+00 0.00000E+00
 -1       282-9.18464E-01 4.59843E-01 8.53654E-02
 -1       283 0.00000E+00 0.00000E+00 0.00000E+00
 -1       284-4.30322E-01 4.30322E-01 5.05151E-14
 -1       285-4.59843E-01 9.18464E-01-8.53654E-02
 -1       286-1.88370E+00 1.88370E+00 1.58096E-13
 -1       287-1.88288E+00 9.40800E-01 6.40362E-02
 -1       288-1.41189E+00 1.41189E+00 1.31894E-13
 -1       289-9.40800E-01 1.88288E+00-6.40362E-02
 -1       290-2.78471E+00 2.78471E+00 1.61204E-13
 -1       291-2.78438E+00 1.39249E+00 6.37970E-02
 -1       292-2.34000E+00 2.34000E+00 1.67422E-13
 -1       293-1.39249E+00 2.78438E+00-6.37970E-02
 -1       294-3.62102E+00 3.62102E+00 1.27454E-13
 -1       295-3.62035E+00 1.81017E+00 5.72023E-02
 -1       296-3.21320E+00 3.21320E+00 1.44329E-13
 -1       297-1.81017E+00 3.62035E+00-5.72023E-02
 -1       298-4.36628E+00 4.36628E+00 5.37348E-14
 -1       299-4.36552E+00 2.18288E+00 5.01656E-02
 -1       300-4.00606E+00 4.00606E+00 9.68114E-14
 -1       301-2.18288E+00 4.36552E+00-5.01656E-02
 -1       302-5.00327E+00 5.00327E+00-1.95399E-14
 -1       303-5.00238E+00 2.50129E+00 4.16915E-02
 -1       304-4.69941E+00 4.69941E+00 1.28786E-14
 -1       305-2.50129E+00 5.00238E+00-4.16915E-02
 -1       306-5.51585E+00 5.51585E+00-6.17284E-14
 -1       307-5.51488E+00 2.75757E+00 3.22040E-02
 -1       308-5.27599E+00 5.27599E+00-3.99680E-14
 -1       309-2.75757E+00 5.51488E+00-3.22040E-02
 -1       310-5.89143E+00 5.89143E+00-9.57290E-14
 -1       311-5.89038E+00 2.94532E+00 2.19744E-02
 -1       312-5.72143E+00 5.72143E+00-8.30447E-14
 -1       313-2.94532E+00 5.89038E+00-2.19744E-02
 -1       314-6.12039E+00 6.12039E+00-9.41469E-14
 -1       315-6.11930E+00 3.05978E+00 1.09045E-02
 -1       316-6.02474E+00 6.02474E+00-9.93650E-14
 -1       317-3.05978E+00 6.11930E+00-1.09045E-02
 -1       318-6.19835E+00 6.19835E+00-9.00391E-14
 -1       319-6.19697E+00 3.09890E+00 9.22476E-04
 -1       320-6.17802E+00 6.17802E+00-8.90399E-14
 -1       321-3.09890E+00 6.19697E+00-9.22476E-04
 -3
    1PSTEP                        18           1           1          
    1PGM                1.000000E+00                                  
    1PGK                2.192810E+09                                  
    1PHID                         -1                                  
    1PSUBC                         0                                  
    1PMODE                         5                                  
  100CL  105 7452.820500         321                     2    5MODAL      1
 -4  STRESS      6    1
 -5  SXX         1    4    1    1
 -5  SYY         1    4    2    2
 -5  SZZ         1    4    3    3
 -5  SXY         1    4    1    2
 -5  SYZ         1    4    2    3
 -5  SZX         1    4    3    1
 -1         1 6.26163E+06-6.26164E+06-2.95985E+00 1.00033E-02-6.50588E+12 6.50588E+12
 -1         2-3.21908E-01-3.18101E-01-7.57458E-01-6.48449E+05-7.03744E+12 1.52473E-01
 -1         3 1.22810E-01 2.27356E-02-1.40541E-01-5.03934E+10-1.34169E+13 3.78036E-03
 -1         4-1.35373E+11 1.35373E+11-2.03947E+00-1.16464E-01-2.73281E+12 2.73281E+12
 -1         5-8.99433E-01-9.01108E-01-2.10682E+00 6.48449E+05 1.91208E-01 7.03744E+12
 -1         6-4.23229E-03-3.86018E-03-2.33513E-03 1.49491E-03 1.17763E-02 1.06525E-01
 -1         7-2.58875E-02-1.73794E-02-1.54946E-02-6.39258E-02 1.24610E-01 1.18358E-01
 -1         8-5.73883E-02 1.91422E-01-1.58578E+00 5.03934E+10-6.40869E-03 1.34169E+13
 -1         9-1.03425E+12-1.03423E+12-2.41323E+12-2.92011E+05-6.76721E+12 3.26893E+12
 -1        10 3.16467E-02 2.25220E-02-3.90045E-01-2.64572E+11-1.02077E+13 3.79639E-02
 -1        11-1.75590E+11 4.78733E+09-7.23625E+11-1.57199E+10-8.07650E+12-1.66137E+10
 -1        12-5.46449E+11 5.46449E+11-2.13011E+00 7.22031E-02-4.63890E+12 4.63890E+12
 -1        13 1.03423E+12 1.03425E+12 2.41323E+12 2.92011E+05-3.26893E+12 6.76721E+12
 -1        14-1.56195E-01-1.58584E-01-3.55323E-01-3.56438E+05-3.51007E+12 1.22498E-01
 -1        15-3.10335E-02-4.19998E-03-9.24377E-02-3.46735E+10-5.33214E+12 8.33817E-02
 -1        16-4.78733E+09 1.75590E+11 7.23625E+11 1.57199E+10 1.66137E+10 8.07650E+12
 -1        17-4.36913E-01-4.36218E-01-1.02963E+00 3.56438E+05 7.82013E-02 3.51007E+12
 -1        18-8.32272E-03-2.19910E-02-3.25998E-02-2.96409E-02 1.02586E-01 9.74011E-02
 -1        19-1.27907E-01-7.81088E-02-8.58234E-01 3.46735E+10 6.83517E-02 5.33214E+12
 -1        20 4.24194E-02 2.62451E-02-1.65869E+00 2.64572E+11 9.43375E-02 1.02077E+13
 -1        21-2.69279E-01 1.08612E-01 9.41162E-02 8.95451E+09-1.16690E+13 3.10135E-03
 -1        22 3.18976E+10-3.18976E+10-1.10887E+00-1.19155E-01-3.30713E+12 3.30713E+12
 -1        23 5.84619E-02 7.20478E-02-5.16427E-03-1.07182E-01 3.19165E-01 6.27171E-02
 -1        24 6.34186E-01 2.97817E-01-8.80539E-01-8.95451E+09 4.46091E-02 1.16690E+13
 -1        25-7.14874E-03 7.89185E-02 5.60150E-02 7.83262E+10-1.25733E+13-1.94855E-02
 -1        26 8.24420E+09-2.92287E+10 2.20175E+11-9.34767E+08-7.49046E+12 6.12000E+11
 -1        27 1.46355E+11-1.46355E+11-1.60777E+00 3.18172E-02-2.99116E+12 2.99116E+12
 -1        28 4.09670E-02 1.32820E-01 8.77821E-02 9.88928E+09-4.80431E+12 8.01811E-02
 -1        29 2.92287E+10-8.24420E+09-2.20175E+11 9.34767E+08-6.12000E+11 7.49046E+12
 -1        30 1.68114E-02 4.68546E-03-1.69417E-02-1.09339E-02 1.41021E-01 7.08936E-02
 -1        31 1.35734E-01 9.41916E-02-5.44455E-01-9.88928E+09 1.91044E-01 4.80431E+12
 -1        32 2.88513E-01 2.67563E-01-1.20873E+00-7.83262E+10 1.52588E-04 1.25733E+13
 -1        33 1.62551E-01-4.68774E-01 5.56942E-01 1.15538E+10-1.11946E+13 2.91061E-03
 -1        34 2.52206E+10-2.52206E+10 1.06484E-01-2.71881E-01-2.96692E+12 2.96692E+12
 -1        35-3.34784E-01-3.36621E-01-1.59546E-01-2.85234E-01 2.10711E-01 6.77905E-02
 -1        36 3.47471E-01 5.90680E-01 2.91803E-01-1.15538E+10 2.04880E-01 1.11946E+13
 -1        37-7.19509E-02-2.52586E-01 2.57843E-01-5.65174E+09-1.14219E+13 5.48553E-03
 -1        38 6.30442E+10 2.55247E+10 9.83267E+10 6.72894E+09-7.08006E+12 4.55975E+11
 -1        39-3.25226E+09 3.25226E+09-5.55811E-01 4.64088E-02-3.14749E+12 3.14749E+12
 -1        40-3.76959E-02-3.78495E-01 2.10990E-01 4.82489E+09-4.56519E+12-6.27136E-03
 -1        41-2.55247E+10-6.30442E+10-9.83267E+10-6.72894E+09-4.55975E+11 7.08006E+12
 -1        42-1.25565E-01-1.20290E-01-3.65001E-02-9.34877E-02 2.51183E-01 4.34781E-02
 -1        43-2.61320E-01-2.17195E-02-6.17962E-02-4.82489E+09 1.70174E-01 4.56519E+12
 -1        44 4.51607E-01 3.66419E-01-2.02507E-01 5.65174E+09 9.61914E-02 1.14219E+13
 -1        45 5.24837E-01 6.76376E-01 8.64573E-01 1.55305E+10-1.01169E+13 6.09589E-02
 -1        46 3.70798E+10-3.70798E+10 9.57700E-01-2.99780E-01-2.72439E+12 2.72439E+12
 -1        47 6.90851E-02 5.86396E-02-3.69709E-03-7.60908E-02 2.39917E-01 7.96279E-02
 -1        48-8.62366E-01-9.94345E-01-2.41928E-02-1.55305E+10 1.22570E-01 1.01169E+13
 -1        49 1.27325E-01-3.16795E-01 5.31301E-01 1.77031E+10-1.06560E+13 6.52618E-02
 -1        50 4.76810E+10-4.21117E+09 1.56172E+11 6.11513E+09-6.42139E+12 4.36734E+11
 -1        51 3.94734E+10-3.94734E+10 7.33538E-01-1.31951E-01-2.84575E+12 2.84575E+12
 -1        52 1.69921E-01 1.43155E-01 3.08540E-01 9.41537E+09-4.13550E+12 8.43220E-02
 -1        53 4.21117E+09-4.76810E+10-1.56172E+11-6.11513E+09-4.36734E+11 6.42139E+12
 -1        54-2.58396E-01-1.38605E-01-1.65827E-01-6.47068E-02 7.13959E-02 8.24450E-02
 -1        55-1.53222E-01-3.41835E-01 1.28798E-01-9.41537E+09 2.11775E-01 4.13550E+12
 -1        56 2.17651E-01 1.89297E-01 3.59943E-01-1.77031E+10-1.26434E-01 1.06560E+13
 -1        57 1.07222E-01 5.56946E-04 7.69457E-01 1.88965E+10-8.85706E+12-1.40953E-02
 -1        58 4.48639E+10-4.48639E+10 9.66643E-01-9.17923E-02-2.37666E+12 2.37666E+12
 -1        59-2.85780E-01-4.57557E-01-1.81137E-01-2.59177E-01 2.74373E-01-3.34339E-01
 -1        60 5.72670E-01 7.46502E-01 1.64414E+00-1.88965E+10-1.36829E-01 8.85706E+12
 -1        61 3.28445E-02-1.83487E-01 7.10800E-01 1.67001E+10-9.48748E+12-2.29301E-02
 -1        62 7.03409E+10 6.98660E+09 1.86062E+11 8.33199E+09-5.61704E+12 3.78102E+11
 -1        63 3.99465E+10-3.99465E+10 1.06195E+00-2.15745E-01-2.55070E+12 2.55070E+12
 -1        64-5.24487E-02-8.68101E-02 3.26723E-01 1.05645E+10-3.61829E+12-1.77883E-01
 -1        65-6.98660E+09-7.03409E+10-1.86062E+11-8.33199E+09-3.78102E+11 5.61704E+12
 -1        66-7.55176E-02 2.54390E-02 4.08667E-02-5.26895E-02 2.38448E-01-8.30469E-02
 -1        67-9.51843E-02-2.39810E-01 5.31220E-01-1.05645E+10 1.03596E-01 3.61829E+12
 -1        68 5.81261E-01 4.94980E-01 1.10624E+00-1.67001E+10 4.21562E-02 9.48748E+12
 -1        69 8.14419E-02 1.33373E-01-6.20699E-01 2.16117E+10-7.36336E+12-8.53233E-02
 -1        70 5.11709E+10-5.11709E+10 6.40266E-01-2.21910E-02-1.97734E+12 1.97734E+12
 -1        71-2.20798E-01 5.29695E-01 1.14791E-01-2.56985E-01 1.07399E-01-2.86996E-01
 -1        72 8.46088E-01-2.71339E-02 2.09224E+00-2.16117E+10 5.05409E-02 7.36336E+12
 -1        73 2.75982E-01 8.31833E-02 8.01315E-02 2.06693E+10-8.11031E+12-4.26254E-02
 -1        74 7.64820E+10 4.28758E+09 2.12829E+11 9.26921E+09-4.67065E+12 3.14917E+11
 -1        75 4.88495E+10-4.88495E+10 4.68890E-01-5.59182E-02-2.17731E+12 2.17731E+12
 -1        76-2.58750E-01 1.99158E-01-3.30274E-01 1.23425E+10-3.00854E+12-1.78455E-01
 -1        77-4.28758E+09-7.64820E+10-2.12829E+11-9.26921E+09-3.14917E+11 4.67065E+12
 -1        78-1.55506E-01 7.12283E-02-1.60297E-02-2.90976E-01 1.59715E-01-2.44912E-01
 -1        79-4.26693E-02 2.06715E-01 9.52295E-01-1.23425E+10 9.49802E-02 3.00854E+12
 -1        80 5.03036E-01 2.14714E-01 1.78205E+00-2.06693E+10 8.40607E-02 8.11031E+12
 -1        81-6.86192E-01-1.15263E+00-1.61730E+00 2.38198E+10-5.68848E+12-4.79813E-02
 -1        82 5.64812E+10-5.64812E+10 3.60805E-01-1.44247E-01-1.52786E+12 1.52786E+12
 -1        83 1.56221E-01 2.46208E-01 4.02778E-02-5.88144E-01-7.04485E-02-2.59763E-02
 -1        84 1.16819E+00 8.48518E-01 2.36257E+00-2.38198E+10-2.11906E-02 5.68848E+12
 -1        85-2.31453E-01-6.12473E-01-1.24135E+00 2.30359E+10-6.52613E+12-3.07236E-02
 -1        86 8.55667E+10 5.84883E+09 2.34456E+11 1.03013E+10-3.60836E+12 2.43588E+11
 -1        87 5.44684E+10-5.44684E+10 8.63587E-01 1.93103E-01-1.75279E+12 1.75279E+12
 -1        88-2.68601E-01-4.51685E-01-7.60798E-01 1.35185E+10-2.32424E+12 1.16577E-02
 -1        89-5.84883E+09-8.55667E+10-2.34456E+11-1.03013E+10-2.43588E+11 3.60836E+12
 -1        90 4.59552E-02 3.48180E-01 6.45952E-02-3.29973E-01-8.24589E-03-2.20238E-01
 -1        91 3.31820E-01 1.15998E-01 9.52498E-01-1.35185E+10-2.74792E-02 2.32424E+12
 -1        92 5.86288E-01 2.81944E-02 2.11308E+00-2.30359E+10-2.31705E-02 6.52613E+12
 -1        93-1.08828E+00-6.59447E-01-1.41195E+00 2.57061E+10-3.87621E+12-6.71549E-02
 -1        94 6.08628E+10-6.08628E+10 6.73973E-01 1.71495E-01-1.03830E+12 1.03830E+12
 -1        95 1.77782E-03-1.54314E-01-6.13783E-03 1.22937E-01-3.63659E-01 6.19265E-02
 -1        96 1.22467E-01-1.85457E-01 1.69213E+00-2.57061E+10-2.56186E-02 3.87621E+12
 -1        97-1.12709E+00-9.56451E-01-1.72517E+00 2.47971E+10-4.78253E+12-3.58582E-04
 -1        98 9.17581E+10 5.95193E+09 2.52959E+11 1.10897E+10-2.45741E+12 1.64044E+11
 -1        99 5.87425E+10-5.87425E+10 5.46441E-01 2.78054E-01-1.28316E+12 1.28316E+12
 -1       100 2.86532E-01 1.84507E-01-2.69970E-01 1.46164E+10-1.58330E+12-1.78385E-02
 -1       101-5.95193E+09-9.17581E+10-2.52959E+11-1.10897E+10-1.64044E+11 2.45741E+12
 -1       102 2.96343E-01 1.68498E-01 1.90710E-01-9.78408E-02-1.66512E-01-1.26483E-02
 -1       103-3.97587E-02-1.48087E-01 8.05706E-01-1.46164E+10-2.05380E-01 1.58330E+12
 -1       104 3.09555E-01 3.48854E-02 1.75224E+00-2.47971E+10-3.53107E-02 4.78253E+12
 -1       105 5.88112E-01 6.46172E-01-6.36818E-01 2.64483E+10-1.94907E+12 1.06985E-01
 -1       106 6.30822E+10-6.30822E+10-1.73583E+00-2.80397E-01-5.31929E+11 5.31929E+11
 -1       107-9.55839E-01-1.50395E-01-3.35396E-01-2.47265E-01-2.65560E-01 1.50410E-01
 -1       108 2.43232E+00-9.49631E-02 6.61350E-01-2.64483E+10 1.43461E-02 1.94907E+12
 -1       109-4.25888E-01-4.39865E-01-1.07085E+00 2.69106E+10-2.91086E+12 2.58446E-03
 -1       110 8.87759E+10-4.24382E+08 2.47552E+11 1.13672E+10-1.24039E+12 9.03207E+10
 -1       111 6.36416E+10-6.36416E+10-9.88655E-01-1.21865E-01-7.87105E+11 7.87105E+11
 -1       112-1.41398E-01 2.50574E-01-4.88356E-01 1.50812E+10-7.98188E+11 1.49803E-01
 -1       113 4.24382E+08-8.87759E+10-2.47552E+11-1.13672E+10-9.03207E+10 1.24039E+12
 -1       114-2.73751E-01 1.07875E-01-1.10397E-01-7.02826E-02-2.58476E-01 1.63860E-01
 -1       115 4.51649E-01-2.53120E-01 6.47602E-02-1.50812E+10-1.06491E-01 7.98188E+11
 -1       116 7.83600E-01-5.68237E-02 1.07962E+00-2.69106E+10 3.11947E-03 2.91086E+12
 -1       117 7.54089E-02 6.42288E-01 4.85329E-01 3.91040E+10-6.38546E+10 8.83818E-02
 -1       118 8.46319E+10-8.46319E+10-4.11923E-01 5.59547E-01 3.24015E+10-3.24015E+10
 -1       119 8.73851E-02-5.23569E-01-2.35774E-01 3.24777E-01 5.61676E-02 1.94001E-01
 -1       120 4.62784E-01 5.37781E-01 5.28877E-01-3.91040E+10-9.13793E-02 6.38546E+10
 -1       121 2.06394E-01 8.52356E-02-2.57694E-01 2.33013E+10-1.00779E+12 8.64384E-02
 -1       122 1.00016E+11-2.22767E+10 2.32945E+11 1.83847E+10-1.54048E+10-3.00085E+10
 -1       123 5.49096E+10-5.49096E+10-9.86882E-01-1.38588E-01-2.47589E+11 2.47589E+11
 -1       124-2.85263E-02 2.15221E-01 1.00262E-01 2.07194E+10-1.65465E+10 1.41593E-01
 -1       125 2.22767E+10-1.00016E+11-2.32945E+11-1.83847E+10 3.00085E+10 1.54048E+10
 -1       126 7.26112E-02 2.27656E-01 6.44372E-02-8.55558E-03-1.03104E-01 1.66247E-01
 -1       127 3.19366E-02-2.74431E-01 3.56960E-02-2.07194E+10-2.21252E-03 1.65465E+10
 -1       128 4.35516E-01 8.84972E-02 2.52121E-01-2.33013E+10 5.52096E-02 1.00779E+12
 -1       129-6.26164E+06 6.26164E+06-1.43651E+00-2.73514E-03 6.50588E+12 6.50588E+12
 -1       130 2.74907E-01 2.73609E-01 6.40840E-01-6.48449E+05 7.03744E+12 1.47643E-01
 -1       131-1.95763E-01-8.84094E-02 1.28624E-01-5.03934E+10 1.34169E+13 3.15187E-02
 -1       132 1.35373E+11-1.35373E+11-1.46865E+00-7.31945E-04 2.73281E+12 2.73281E+12
 -1       133-1.03423E+12-1.03425E+12-2.41323E+12 2.92011E+05 3.26893E+12 6.76721E+12
 -1       134 1.26144E-01 1.31897E-01 3.08102E-01-3.56438E+05 3.51007E+12 1.19164E-01
 -1       135 2.09131E-02 2.56233E-02 1.31946E-01-3.46735E+10 5.33214E+12 6.99369E-02
 -1       136 4.78733E+09-1.75590E+11-7.23625E+11 1.57199E+10-1.66137E+10 8.07650E+12
 -1       137 1.03425E+12 1.03423E+12 2.41323E+12-2.92011E+05 6.76721E+12 3.26893E+12
 -1       138-4.11987E-02-5.49316E-03 3.68164E-01-2.64572E+11 1.02077E+13 7.30376E-02
 -1       139 1.75590E+11-4.78733E+09 7.23625E+11-1.57199E+10 8.07650E+12-1.66137E+10
 -1       140 5.46449E+11-5.46449E+11-1.24005E+00-7.40643E-02 4.63890E+12 4.63890E+12
 -1       141 4.84619E-01 2.92267E-01-4.94766E-03 8.95451E+09 1.16690E+13 1.12961E-01
 -1       142-3.18976E+10 3.18976E+10-1.28702E+00-2.50009E-02 3.30713E+12 3.30713E+12
 -1       143 1.12626E-01 4.89612E-02-1.00501E-01 9.88928E+09 4.80431E+12 5.67361E-02
 -1       144-2.92287E+10 8.24420E+09 2.20175E+11 9.34767E+08 6.12000E+11 7.49046E+12
 -1       145 4.61884E-02 1.36719E-02-4.79279E-02 7.83262E+10 1.25733E+13 4.02184E-02
 -1       146-8.24420E+09 2.92287E+10-2.20175E+11-9.34767E+08 7.49046E+12 6.12000E+11
 -1       147-1.46355E+11 1.46355E+11-1.36275E+00-1.11022E-02 2.99116E+12 2.99116E+12
 -1       148 3.91827E-01 7.15257E-01-2.37336E-01 1.15538E+10 1.11946E+13 2.05922E-02
 -1       149-2.52206E+10 2.52206E+10-5.73245E-02-3.71583E-01 2.96692E+12 2.96692E+12
 -1       150-2.64373E-02 7.20282E-02-2.65981E-01 4.82489E+09 4.56519E+12 7.71216E-02
 -1       151 2.55247E+10 6.30442E+10 9.83267E+10-6.72894E+09 4.55975E+11 7.08006E+12
 -1       152 4.10406E-01 5.55794E-01-1.02343E-01-5.65174E+09 1.14219E+13 6.00166E-02
 -1       153-6.30442E+10-2.55247E+10-9.83267E+10 6.72894E+09 7.08006E+12 4.55975E+11
 -1       154 3.25226E+09-3.25226E+09-9.01878E-01-1.35410E-01 3.14749E+12 3.14749E+12
 -1       155 2.64170E-01 4.95052E-01-4.25299E-01 1.55305E+10 1.01169E+13-9.87804E-03
 -1       156-3.70798E+10 3.70798E+10-1.28100E+00 5.26162E-01 2.72439E+12 2.72439E+12
 -1       157 1.19912E-01 6.63614E-02-2.56346E-01 9.41537E+09 4.13550E+12 1.61877E-02
 -1       158-4.21117E+09 4.76810E+10 1.56172E+11-6.11513E+09 4.36734E+11 6.42139E+12
 -1       159 2.60540E-01 6.47102E-01-2.50515E-01 1.77031E+10 1.06560E+13-1.63364E-02
 -1       160-4.76810E+10 4.21117E+09-1.56172E+11 6.11513E+09 6.42139E+12 4.36734E+11
 -1       161-3.94734E+10 3.94734E+10-6.15128E-01 1.18758E-01 2.84575E+12 2.84575E+12
 -1       162 3.92216E-01 5.85155E-01-3.89906E-01 1.88965E+10 8.85706E+12-3.37741E-02
 -1       163-4.48639E+10 4.48639E+10 9.95618E-01 1.05150E-01 2.37666E+12 2.37666E+12
 -1       164 1.22155E-01 2.67143E-02-2.55873E-01 1.05645E+10 3.61829E+12-1.89417E-01
 -1       165 6.98660E+09 7.03409E+10 1.86062E+11-8.33199E+09 3.78102E+11 5.61704E+12
 -1       166 2.42138E-01 7.25479E-01-4.56169E-01 1.67001E+10 9.48748E+12 2.92721E-02
 -1       167-7.03409E+10-6.98660E+09-1.86062E+11 8.33199E+09 5.61704E+12 3.78102E+11
 -1       168-3.99465E+10 3.99465E+10-2.64750E-01 2.95713E-01 2.55070E+12 2.55070E+12
 -1       169 3.17802E-02-7.17846E-01 6.35616E-01 2.16117E+10 7.36336E+12-6.54730E-02
 -1       170-5.11709E+10 5.11709E+10 3.16144E+00-2.84529E-03 1.97734E+12 1.97734E+12
 -1       171 9.33404E-02 1.27455E-01 4.87208E-01 1.23425E+10 3.00854E+12-1.72243E-01
 -1       172 4.28758E+09 7.64820E+10 2.12829E+11-9.26921E+09 3.14917E+11 4.67065E+12
 -1       173 1.24084E-01-3.90167E-02 8.58727E-02 2.06693E+10 8.11031E+12 7.05218E-02
 -1       174-7.64820E+10-4.28758E+09-2.12829E+11 9.26921E+09 4.67065E+12 3.14917E+11
 -1       175-4.88495E+10 4.88495E+10 1.69119E+00-1.39302E-01 2.17731E+12 2.17731E+12
 -1       176-1.72596E-02 2.93396E-01 1.07671E+00 2.38198E+10 5.68848E+12-3.90015E-02
 -1       177-5.64812E+10 5.64812E+10 3.16886E+00-7.22194E-03 1.52786E+12 1.52786E+12
 -1       178 6.19564E-02 9.14040E-02 4.73952E-01 1.35185E+10 2.32424E+12-5.79076E-02
 -1       179 5.84883E+09 8.55667E+10 2.34456E+11-1.03013E+10 2.43588E+11 3.60836E+12
 -1       180-1.83533E-01-3.88565E-01 7.51350E-01 2.30359E+10 6.52613E+12-6.47044E-02
 -1       181-8.55667E+10-5.84883E+09-2.34456E+11 1.03013E+10 3.60836E+12 2.43588E+11
 -1       182-5.44684E+10 5.44684E+10 2.87724E+00-1.98095E-01 1.75279E+12 1.75279E+12
 -1       183 1.58884E-01-3.94974E-02 1.09186E+00 2.57061E+10 3.87621E+12-2.44205E-02
 -1       184-6.08628E+10 6.08628E+10 2.52992E+00 8.11778E-01 1.03830E+12 1.03830E+12
 -1       185-4.17932E-01-4.37431E-02 4.04288E-01 1.46164E+10 1.58330E+12 7.48025E-02
 -1       186 5.95193E+09 9.17581E+10 2.52959E+11-1.10897E+10 1.64044E+11 2.45741E+12
 -1       187 4.90902E-01 2.70737E-01 1.32701E+00 2.47971E+10 4.78253E+12 2.68521E-02
 -1       188-9.17581E+10-5.95193E+09-2.52959E+11 1.10897E+10 2.45741E+12 1.64044E+11
 -1       189-5.87425E+10 5.87425E+10 2.89081E+00 2.64672E-01 1.28316E+12 1.28316E+12
 -1       190 8.33462E-01-9.92584E-02 8.51124E-01 2.64483E+10 1.94907E+12 1.10345E-01
 -1       191-6.30822E+10 6.30822E+10 1.48647E+00 1.68680E-01 5.31929E+11 5.31929E+11
 -1       192 1.79195E-03 3.07999E-02 3.14095E-01 1.50812E+10 7.98188E+11 7.78983E-02
 -1       193-4.24382E+08 8.87759E+10 2.47552E+11-1.13672E+10 9.03207E+10 1.24039E+12
 -1       194 9.20815E-01 4.64661E-01 1.19590E+00 2.69106E+10 2.91086E+12-1.19393E-02
 -1       195-8.87759E+10 4.24382E+08-2.47552E+11 1.13672E+10 1.24039E+12 9.03207E+10
 -1       196-6.36416E+10 6.36416E+10 1.86489E+00 3.63351E-01 7.87105E+11 7.87105E+11
 -1       197-1.98074E-01-6.91269E-01-1.26854E-01 3.91040E+10 6.38546E+10-5.94683E-02
 -1       198-8.46319E+10 8.46319E+10-2.80313E-01 1.10045E+00-3.24015E+10-3.24015E+10
 -1       199 6.05755E-02-5.12535E-01-1.78747E-01 2.07194E+10 1.65465E+10 2.39588E-02
 -1       200-2.22767E+10 1.00016E+11 2.32945E+11-1.83847E+10-3.00085E+10 1.54048E+10
 -1       201 5.92464E-01 1.06552E-01 5.92190E-01 2.33013E+10 1.00779E+12 4.14346E-02
 -1       202-1.00016E+11 2.22767E+10-2.32945E+11 1.83847E+10 1.54048E+10-3.00085E+10
 -1       203-5.49096E+10 5.49096E+10 1.85118E-01 4.80035E-01 2.47589E+11 2.47589E+11
 -1       204-6.26164E+06 6.26164E+06 1.46405E+00 9.81140E-03-6.50588E+12-6.50588E+12
 -1       205 1.35373E+11-1.35373E+11 1.43595E+00-5.39351E-02-2.73281E+12-2.73281E+12
 -1       206 8.68092E-01 8.75848E-01 2.01239E+00 6.48449E+05 1.97783E-01-7.03744E+12
 -1       207 3.75671E-02-7.05948E-02 1.70161E+00 5.03934E+10 1.10171E-02-1.34169E+13
 -1       208 1.03425E+12 1.03423E+12 2.41323E+12-2.92011E+05-6.76721E+12-3.26893E+12
 -1       209 5.46449E+11-5.46449E+11 1.26031E+00 2.76794E-02-4.63890E+12-4.63890E+12
 -1       210 1.75590E+11-4.78733E+09 7.23625E+11-1.57199E+10-8.07650E+12 1.66137E+10
 -1       211-1.03423E+12-1.03425E+12-2.41323E+12 2.92011E+05-3.26893E+12-6.76721E+12
 -1       212 4.78733E+09-1.75590E+11-7.23625E+11 1.57199E+10 1.66137E+10-8.07650E+12
 -1       213 4.33727E-01 4.38339E-01 9.97670E-01 3.56438E+05 8.36049E-02-3.51007E+12
 -1       214-8.76465E-02-3.81470E-02 1.61841E+00 2.64572E+11 1.08824E-01-1.02077E+13
 -1       215 5.38483E-02 8.88777E-02 8.80896E-01 3.46735E+10 5.43116E-02-5.33214E+12
 -1       216-3.18976E+10 3.18976E+10 1.12503E+00-4.99487E-03-3.30713E+12-3.30713E+12
 -1       217-6.17599E-02-1.61591E-02 1.01099E+00-8.95451E+09 3.67868E-02-1.16690E+13
 -1       218-1.46355E+11 1.46355E+11 1.37522E+00-1.71447E-02-2.99116E+12-2.99116E+12
 -1       219-8.24420E+09 2.92287E+10-2.20175E+11-9.34767E+08-7.49046E+12-6.12000E+11
 -1       220-2.92287E+10 8.24420E+09 2.20175E+11 9.34767E+08-6.12000E+11-7.49046E+12
 -1       221-2.86148E-01-2.65884E-01 1.14557E+00-7.83262E+10-2.01235E-02-1.25733E+13
 -1       222 9.62572E-02 5.52239E-02 5.18988E-01-9.88928E+09 1.87193E-01-4.80431E+12
 -1       223-2.52206E+10 2.52206E+10 5.44365E-01 6.82959E-02-2.96692E+12-2.96692E+12
 -1       224-4.06373E-01 4.60620E-02-2.25519E-01-1.15538E+10 6.54336E-02-1.11946E+13
 -1       225 3.25226E+09-3.25226E+09 8.12047E-01 7.07174E-02-3.14749E+12-3.14749E+12
 -1       226-6.30442E+10-2.55247E+10-9.83267E+10 6.72894E+09-7.08006E+12-4.55975E+11
 -1       227 2.55247E+10 6.30442E+10 9.83267E+10-6.72894E+09-4.55975E+11-7.08006E+12
 -1       228-1.38348E-01 1.50055E-01 4.51902E-01 5.65174E+09 1.23549E-02-1.14219E+13
 -1       229-3.15028E-01-1.27742E-01-1.48887E-01-4.82489E+09 2.06630E-01-4.56519E+12
 -1       230-3.70798E+10 3.70798E+10 5.58849E-01 5.25776E-02-2.72439E+12-2.72439E+12
 -1       231-1.39828E-01 2.39124E-02-3.62160E-01-1.55305E+10 1.57629E-01-1.01169E+13
 -1       232-3.94734E+10 3.94734E+10 2.08025E-01 6.79049E-02-2.84575E+12-2.84575E+12
 -1       233-4.76810E+10 4.21117E+09-1.56172E+11 6.11513E+09-6.42139E+12-4.36734E+11
 -1       234-4.21117E+09 4.76810E+10 1.56172E+11-6.11513E+09-4.36734E+11-6.42139E+12
 -1       235-9.84802E-02 6.62975E-02-2.18954E-01-1.77031E+10-6.32477E-03-1.06560E+13
 -1       236 1.48952E-01 7.08642E-02-1.04049E-01-9.41537E+09 1.45564E-01-4.13550E+12
 -1       237-4.48639E+10 4.48639E+10-8.28442E-01 1.95837E-01-2.37666E+12-2.37666E+12
 -1       238-1.23834E+00-7.16278E-01-1.75780E+00-1.88965E+10 1.44191E-01-8.85706E+12
 -1       239-3.99465E+10 3.99465E+10-9.49659E-02 6.92759E-02-2.55070E+12-2.55070E+12
 -1       240-7.03409E+10-6.98660E+09-1.86062E+11 8.33199E+09-5.61704E+12-3.78102E+11
 -1       241 6.98660E+09 7.03409E+10 1.86062E+11-8.33199E+09-3.78102E+11-5.61704E+12
 -1       242-4.49394E-01-2.02431E-01-9.87755E-01-1.67001E+10 1.05654E-01-9.48748E+12
 -1       243-4.44104E-01-2.05138E-01-7.65825E-01-1.05645E+10 1.84268E-01-3.61829E+12
 -1       244-5.11709E+10 5.11709E+10-2.08756E+00-1.07061E-01-1.97734E+12-1.97734E+12
 -1       245-8.55927E-01-6.66962E-01-2.40720E+00-2.16117E+10 1.21560E-01-7.36336E+12
 -1       246-4.88495E+10 4.88495E+10-1.46479E+00 1.73631E-02-2.17731E+12-2.17731E+12
 -1       247-7.64820E+10-4.28758E+09-2.12829E+11 9.26921E+09-4.67065E+12-3.14917E+11
 -1       248 4.28758E+09 7.64820E+10 2.12829E+11-9.26921E+09-3.14917E+11-4.67065E+12
 -1       249-4.99542E-01-4.52541E-01-1.79123E+00-2.06693E+10 5.39956E-02-8.11031E+12
 -1       250-3.26584E-01-1.93993E-01-1.10611E+00-1.23425E+10 1.19799E-01-3.00854E+12
 -1       251-5.64812E+10 5.64812E+10-2.43856E+00 1.64198E-01-1.52786E+12-1.52786E+12
 -1       252-7.50237E-01-8.52303E-01-2.31349E+00-2.38198E+10-9.40883E-02-5.68848E+12
 -1       253-5.44684E+10 5.44684E+10-2.71001E+00-1.14896E-01-1.75279E+12-1.75279E+12
 -1       254-8.55667E+10-5.84883E+09-2.34456E+11 1.03013E+10-3.60836E+12-2.43588E+11
 -1       255 5.84883E+09 8.55667E+10 2.34456E+11-1.03013E+10-2.43588E+11-3.60836E+12
 -1       256-7.69958E-01-7.89391E-01-2.36998E+00-2.30359E+10 1.02634E-02-6.52613E+12
 -1       257-2.40261E-01-1.08064E-01-1.05333E+00-1.35185E+10-9.42894E-02-2.32424E+12
 -1       258-6.08628E+10 6.08628E+10-2.83743E+00 3.38773E-01-1.03830E+12-1.03830E+12
 -1       259-9.52583E-01-7.47467E-01-2.03877E+00-2.57061E+10-1.50706E-01-3.87621E+12
 -1       260-5.87425E+10 5.87425E+10-2.86435E+00 1.39646E-01-1.28316E+12-1.28316E+12
 -1       261-9.17581E+10-5.95193E+09-2.52959E+11 1.10897E+10-2.45741E+12-1.64044E+11
 -1       262 5.95193E+09 9.17581E+10 2.52959E+11-1.10897E+10-1.64044E+11-2.45741E+12
 -1       263-4.97818E-01-4.50321E-01-1.96984E+00-2.47971E+10-6.30093E-03-4.78253E+12
 -1       264-4.20448E-01-5.54811E-01-1.00716E+00-1.46164E+10-2.32307E-01-1.58330E+12
 -1       265-6.30822E+10 6.30822E+10 2.20952E-01-1.79170E-01-5.31929E+11-5.31929E+11
 -1       266-3.95912E-01-3.23143E-01-3.40408E-01-2.64483E+10 2.86680E-02-1.94907E+12
 -1       267-6.36416E+10 6.36416E+10-1.52945E+00 1.75304E-02-7.87105E+11-7.87105E+11
 -1       268-8.87759E+10 4.24382E+08-2.47552E+11 1.13672E+10-1.24039E+12-9.03207E+10
 -1       269-4.24382E+08 8.87759E+10 2.47552E+11-1.13672E+10-9.03207E+10-1.24039E+12
 -1       270-3.46329E-01-4.31747E-01-1.15899E+00-2.69106E+10-5.60527E-02-2.91086E+12
 -1       271-4.17393E-01-1.89361E-01-2.55505E-01-1.50812E+10-1.55301E-01-7.98188E+11
 -1       272-8.46319E+10 8.46319E+10-1.53837E+00 4.54836E-02 3.24015E+10 3.24015E+10
 -1       273 1.06346E+00 4.93622E-01 4.67773E-01-3.91040E+10 1.76034E-01-6.38546E+10
 -1       274-5.49096E+10 5.49096E+10-8.28605E-01 2.19284E-01-2.47589E+11-2.47589E+11
 -1       275-1.00016E+11 2.22767E+10-2.32945E+11 1.83847E+10-1.54048E+10 3.00085E+10
 -1       276-2.22767E+10 1.00016E+11 2.32945E+11-1.83847E+10 3.00085E+10-1.54048E+10
 -1       277-4.85077E-02 2.33154E-01 9.28688E-02-2.33013E+10 8.56234E-02-1.00779E+12
 -1       278 6.80054E-01 7.76062E-02 1.03745E-01-2.07194E+10 8.77565E-02-1.65465E+10
 -1       279 6.26164E+06-6.26163E+06 2.99149E+00-5.75725E-03 6.50588E+12-6.50588E+12
 -1       280-1.35373E+11 1.35373E+11 1.82088E+00-2.12517E-02 2.73281E+12-2.73281E+12
 -1       281 1.03423E+12 1.03425E+12 2.41323E+12 2.92011E+05 3.26893E+12-6.76721E+12
 -1       282-4.78733E+09 1.75590E+11 7.23625E+11 1.57199E+10-1.66137E+10-8.07650E+12
 -1       283-1.03425E+12-1.03423E+12-2.41323E+12-2.92011E+05 6.76721E+12-3.26893E+12
 -1       284-5.46449E+11 5.46449E+11 2.10186E+00-7.18974E-02 4.63890E+12-4.63890E+12
 -1       285-1.75590E+11 4.78733E+09-7.23625E+11-1.57199E+10 8.07650E+12 1.66137E+10
 -1       286 3.18976E+10-3.18976E+10 9.21687E-01 6.38820E-02 3.30713E+12-3.30713E+12
 -1       287 2.92287E+10-8.24420E+09-2.20175E+11 9.34767E+08 6.12000E+11-7.49046E+12
 -1       288 1.46355E+11-1.46355E+11 1.34437E+00 7.02537E-02 2.99116E+12-2.99116E+12
 -1       289 8.24420E+09-2.92287E+10 2.20175E+11-9.34767E+08 7.49046E+12-6.12000E+11
 -1       290 2.52206E+10-2.52206E+10-7.87637E-01-1.94765E-01 2.96692E+12-2.96692E+12
 -1       291-2.55247E+10-6.30442E+10-9.83267E+10-6.72894E+09 4.55975E+11-7.08006E+12
 -1       292-3.25226E+09 3.25226E+09 1.24296E-01-2.96680E-02 3.14749E+12-3.14749E+12
 -1       293 6.30442E+10 2.55247E+10 9.83267E+10 6.72894E+09 7.08006E+12-4.55975E+11
 -1       294 3.70798E+10-3.70798E+10-8.55463E-01 3.37672E-01 2.72439E+12-2.72439E+12
 -1       295 4.21117E+09-4.76810E+10-1.56172E+11-6.11513E+09 4.36734E+11-6.42139E+12
 -1       296 3.94734E+10-3.94734E+10-5.80868E-01 2.19910E-01 2.84575E+12-2.84575E+12
 -1       297 4.76810E+10-4.21117E+09 1.56172E+11 6.11513E+09 6.42139E+12-4.36734E+11
 -1       298 4.48639E+10-4.48639E+10-2.29599E+00-5.66455E-01 2.37666E+12-2.37666E+12
 -1       299-6.98660E+09-7.03409E+10-1.86062E+11-8.33199E+09 3.78102E+11-5.61704E+12
 -1       300 3.99465E+10-3.99465E+10-1.51659E+00 8.65162E-02 2.55070E+12-2.55070E+12
 -1       301 7.03409E+10 6.98660E+09 1.86062E+11 8.33199E+09 5.61704E+12-3.78102E+11
 -1       302 5.11709E+10-5.11709E+10-1.49404E+00-3.69413E-02 1.97734E+12-1.97734E+12
 -1       303-4.28758E+09-7.64820E+10-2.12829E+11-9.26921E+09 3.14917E+11-4.67065E+12
 -1       304 4.88495E+10-4.88495E+10-1.42907E+00-1.32526E-01 2.17731E+12-2.17731E+12
 -1       305 7.64820E+10 4.28758E+09 2.12829E+11 9.26921E+09 4.67065E+12-3.14917E+11
 -1       306 5.64812E+10-5.64812E+10-5.31953E-01 7.24180E-03 1.52786E+12-1.52786E+12
 -1       307-5.84883E+09-8.55667E+10-2.34456E+11-1.03013E+10 2.43588E+11-3.60836E+12
 -1       308 5.44684E+10-5.44684E+10-4.03415E-01 9.60834E-02 1.75279E+12-1.75279E+12
 -1       309 8.55667E+10 5.84883E+09 2.34456E+11 1.03013E+10 3.60836E+12-2.43588E+11
 -1       310 6.08628E+10-6.08628E+10 3.33946E-01-2.16976E-01 1.03830E+12-1.03830E+12
 -1       311-5.95193E+09-9.17581E+10-2.52959E+11-1.10897E+10 1.64044E+11-2.45741E+12
 -1       312 5.87425E+10-5.87425E+10-2.33478E-01 4.05828E-02 1.28316E+12-1.28316E+12
 -1       313 9.17581E+10 5.95193E+09 2.52959E+11 1.10897E+10 2.45741E+12-1.64044E+11
 -1       314 6.30822E+10-6.30822E+10-2.89045E-01-2.89682E-01 5.31929E+11-5.31929E+11
 -1       315 4.24382E+08-8.87759E+10-2.47552E+11-1.13672E+10 9.03207E+10-1.24039E+12
 -1       316 6.36416E+10-6.36416E+10 3.01887E-01-2.00324E-01 7.87105E+11-7.87105E+11
 -1       317 8.87759E+10-4.24382E+08 2.47552E+11 1.13672E+10 1.24039E+12-9.03207E+10
 -1       318 8.46319E+10-8.46319E+10-5.36454E-01-2.48095E-01-3.24015E+10 3.24015E+10
 -1       319 2.22767E+10-1.00016E+11-2.32945E+11-1.83847E+10-3.00085E+10-1.54048E+10
 -1       320 5.49096E+10-5.49096E+10-3.93712E-02-3.18353E-01 2.47589E+11-2.47589E+11
 -1       321 1.00016E+11-2.22767E+10 2.32945E+11 1.83847E+10 1.54048E+10 3.00085E+10
 -3
    1PSTEP                        19           1           1          
    1PGM                1.000000E+00                                  
    1PGK                2.192810E+09                                  
    1PHID                         -1                                  
    1PSUBC                         0                                  
    1PMODE                         5                                  
  100CL  105 7452.820500         321                     2    5MODAL      1
 -4  TOSTRAIN    6    1
 -5  EXX         1    4    1    1
 -5  EYY         1    4    2    2
 -5  EZZ         1    4    3    3
 -5  EXY         1    4    1    2
 -5  EYZ         1    4    2    3
 -5  EZX         1    4    3    1
 -1         1 3.87625E-05-3.87625E-05-1.04847E-11 6.21273E-14-4.02745E+01 4.02745E+01
 -1         2 3.46511E-15 2.71492E-14-2.69212E-12-4.01421E-06-4.35651E+01 9.48686E-13
 -1         3 7.52984E-13 1.33671E-13-8.76906E-13-3.11959E-01-8.30570E+01 2.26208E-14
 -1         4-8.38025E-01 8.38025E-01-8.51417E-12-7.20939E-13-1.69174E+01 1.69174E+01
 -1         5 1.32214E-14 3.97599E-15-7.46003E-12 4.01421E-06 1.18422E-12 4.35651E+01
 -1         6-1.16728E-14-9.09033E-15 7.33293E-16 9.29303E-15 7.67687E-14 6.61006E-13
 -1         7-7.64831E-14-2.36860E-14-1.15819E-14-3.95705E-13 7.72397E-13 7.34912E-13
 -1         8 1.71890E-12 3.25871E-12-7.74370E-12 3.11959E-01-3.75255E-14 8.30570E+01
 -1         9-4.95509E-05 5.45716E-05-8.53660E+00-1.80769E-06-4.18923E+01 2.02362E+01
 -1        10 6.75873E-13 6.17950E-13-1.93557E-12-1.63783E+00-6.31903E+01 2.37088E-13
 -1        11 1.90767E-01 1.30739E+00-3.20183E+00-9.73137E-02-4.99974E+01-1.02847E-01
 -1        12-3.38278E+00 3.38278E+00-9.72187E-12 4.47000E-13-2.87170E+01 2.87170E+01
 -1        13-5.45716E-05 4.95509E-05 8.53660E+00 1.80769E-06-2.02362E+01 4.18923E+01
 -1        14-9.38485E-15-2.40239E-14-1.24317E-12-2.20652E-06-2.17290E+01 7.58893E-13
 -1        15-9.70881E-15 1.56472E-13-3.89857E-13-2.14646E-01-3.30085E+01 5.16476E-13
 -1        16-1.30739E+00-1.90767E-01 3.20183E+00 9.73137E-02 1.02847E-01 4.99974E+01
 -1        17 1.38830E-14 1.78529E-14-3.65613E-12 2.20652E-06 4.84002E-13 2.17290E+01
 -1        18 3.80733E-14-4.64678E-14-1.11500E-13-1.83489E-13 6.32798E-13 6.01612E-13
 -1        19 7.28570E-13 1.03691E-12-3.79253E-12 2.14646E-01 4.24411E-13 3.30085E+01
 -1        20 2.53508E-12 2.43372E-12-7.99697E-12 1.63783E+00 5.84810E-13 6.31903E+01
 -1        21-1.57181E-12 7.67414E-13 6.77678E-13 5.54327E-02-7.22365E+01 2.25653E-14
 -1        22 1.97461E-01-1.97461E-01-4.09117E-12-7.37643E-13-2.04727E+01 2.04727E+01
 -1        23 1.82855E-13 2.66974E-13-2.11142E-13-6.63514E-13 1.97855E-12 3.90477E-13
 -1        24 3.85225E-12 1.77007E-12-5.52439E-12-5.54327E-02 2.75974E-13 7.22365E+01
 -1        25-2.26804E-13 3.06255E-13 1.63991E-13 4.84876E-01-7.78345E+01-1.22569E-13
 -1        26-2.33522E-01-4.65497E-01 1.07843E+00-5.78666E-03-4.63695E+01 3.78857E+00
 -1        27 9.06006E-01-9.06006E-01-6.18949E-12 1.96980E-13-1.85167E+01 1.85167E+01
 -1        28-1.20026E-13 4.48558E-13 1.69701E-13 6.12194E-02-2.97410E+01 4.96464E-13
 -1        29 4.65497E-01 2.33522E-01-1.07843E+00 5.78666E-03-3.78857E+00 4.63695E+01
 -1        30 9.75976E-14 2.24688E-14-1.11423E-13-6.76739E-14 8.71505E-13 4.38937E-13
 -1        31 1.28960E-12 1.03237E-12-2.92112E-12-6.12194E-02 1.18192E-12 2.97410E+01
 -1        32 2.71833E-12 2.58873E-12-6.54995E-12-4.84876E-01 7.21645E-16 7.78345E+01
 -1        33 6.48112E-13-3.26011E-12 3.08955E-12 7.15237E-02-6.92996E+01 1.84575E-14
 -1        34 1.56128E-01-1.56128E-01 2.58231E-12-1.68308E-12-1.83666E+01 1.83666E+01
 -1        35-8.85405E-13-8.96786E-13 1.99415E-13-1.76574E-12 1.30873E-12 4.20515E-13
 -1        36 3.93940E-13 1.89950E-12 4.93053E-14-7.15237E-02 1.26738E-12 6.92996E+01
 -1        37-3.50069E-13-1.46835E-12 1.69142E-12-3.49870E-02-7.07072E+01 3.46945E-14
 -1        38 1.23280E-01-1.08984E-01 3.41695E-01 4.16554E-02-4.38289E+01 2.82271E+00
 -1        39-2.01331E-02 2.01331E-02-7.72736E-13 2.87295E-13-1.94845E+01 1.94845E+01
 -1        40 5.97841E-14-2.04993E-12 1.59927E-12 2.98684E-02-2.82607E+01-3.77615E-14
 -1        41 1.08984E-01-1.23280E-01-3.41695E-01-4.16554E-02-2.82271E+00 4.38289E+01
 -1        42-3.73933E-13-3.41291E-13 1.77414E-13-5.78733E-13 1.55445E-12 2.69017E-13
 -1        43-1.12507E-12 3.58157E-13 1.10101E-13-2.98684E-02 1.05622E-12 2.82607E+01
 -1        44 1.91645E-12 1.38897E-12-2.13297E-12 3.49870E-02 5.97467E-13 7.07072E+01
 -1        45 2.97908E-13 1.23596E-12 2.40101E-12 9.61412E-02-6.26283E+01 3.78142E-13
 -1        46 2.29541E-01-2.29541E-01 5.61108E-12-1.85579E-12-1.68653E+01 1.68653E+01
 -1        47 2.50479E-13 1.85820E-13-2.00059E-13-4.71038E-13 1.48627E-12 4.92611E-13
 -1        48-2.65134E-12-3.46845E-12 2.53709E-12-9.61412E-02 7.57505E-13 6.26283E+01
 -1        49 2.99849E-13-2.44940E-12 2.80073E-12 1.09591E-01-6.59660E+01 4.02206E-13
 -1        50 9.96616E-03-3.11271E-01 6.81574E-01 3.78556E-02-3.97515E+01 2.70359E+00
 -1        51 2.44359E-01-2.44359E-01 4.00098E-12-8.16834E-13-1.76166E+01 1.76166E+01
 -1        52 1.63845E-13-1.80758E-15 1.02200E-12 5.82856E-02-2.56007E+01 5.21500E-13
 -1        53 3.11271E-01-9.96616E-03-6.81574E-01-3.78556E-02-2.70359E+00 3.97515E+01
 -1        54-7.95557E-13-5.39999E-14-2.22498E-13-4.00561E-13 4.42348E-13 5.10134E-13
 -1        55-4.25250E-13-1.59288E-12 1.32052E-12-5.82856E-02 1.31180E-12 2.56007E+01
 -1        56 2.51799E-13 7.62484E-14 1.13266E-12-1.09591E-01-7.81764E-13 6.59660E+01
 -1        57-5.89453E-13-1.24971E-12 3.51007E-12 1.16978E-01-5.48294E+01-8.53068E-14
 -1        58 2.77729E-01-2.77729E-01 9.03121E-12-5.68236E-13-1.47126E+01 1.47126E+01
 -1        59-4.48450E-13-1.51181E-12 1.99370E-13-1.60444E-12 1.69905E-12-2.06798E-12
 -1        60-6.88255E-13 3.87917E-13 5.94472E-12-1.16978E-01-8.46351E-13 5.48294E+01
 -1        61-5.96909E-13-1.93606E-12 3.59993E-12 1.03381E-01-5.87320E+01-1.41165E-13
 -1        62 5.91722E-02-3.33021E-01 7.75543E-01 5.15790E-02-3.47721E+01 2.34063E+00
 -1        63 2.47288E-01-2.47288E-01 7.19858E-12-1.33557E-12-1.57900E+01 1.57900E+01
 -1        64-5.92495E-13-8.05196E-13 1.75478E-12 6.53994E-02-2.23989E+01-1.10097E-12
 -1        65 3.33021E-01-5.91722E-02-7.75543E-01-5.15790E-02-2.34063E+00 3.47721E+01
 -1        66-4.54327E-13 1.70643E-13 2.66115E-13-3.26172E-13 1.47803E-12-5.15032E-13
 -1        67-8.69523E-13-1.76485E-12 3.00817E-12-6.53994E-02 6.40404E-13 2.23989E+01
 -1        68 4.80394E-13-5.36516E-14 3.73043E-12-1.03381E-01 2.61291E-13 5.87320E+01
 -1        69 1.08412E-12 1.40542E-12-3.26264E-12 1.33787E-01-4.55827E+01-5.28619E-13
 -1        70 3.16772E-01-3.16772E-01 5.72007E-12-1.37380E-13-1.22407E+01 1.22407E+01
 -1        71-1.97211E-12 2.67381E-12 1.05348E-13-1.59086E-12 6.65729E-13-1.77644E-12
 -1        72 1.07871E-12-4.32680E-12 8.79321E-12-1.33787E-01 3.13236E-13 4.55827E+01
 -1        73 1.08096E-12-1.12743E-13-1.31518E-13 1.27953E-01-5.02067E+01-2.63484E-13
 -1        74 5.40332E-02-3.92885E-01 8.98087E-01 5.73808E-02-2.89135E+01 1.94949E+00
 -1        75 3.02402E-01-3.02402E-01 6.93235E-12-3.46164E-13-1.34786E+01 1.34786E+01
 -1        76-1.04483E-12 1.78983E-12-1.48759E-12 7.64060E-02-1.86243E+01-1.10502E-12
 -1        77 3.92885E-01-5.40332E-02-8.98087E-01-5.73808E-02-1.94949E+00 2.89135E+01
 -1        78-8.19344E-13 5.84227E-13 4.40735E-14-1.80128E-12 9.87083E-13-1.51574E-12
 -1        79-1.85891E-12-3.15109E-13 4.30035E-12-7.64060E-02 5.87461E-13 1.86243E+01
 -1        80-4.57162E-13-2.24193E-12 7.46060E-12-1.27953E-01 5.19695E-13 5.02067E+01
 -1        81 6.89464E-13-2.19783E-12-5.07452E-12 1.47456E-01-3.52144E+01-2.97498E-13
 -1        82 3.49646E-01-3.49646E-01 1.95218E-12-8.92960E-13-9.45820E+00 9.45820E+00
 -1        83 3.34658E-13 8.91698E-13-3.83113E-13-3.64089E-12-4.37423E-13-1.61318E-13
 -1        84 9.75497E-13-1.00336E-12 8.36927E-12-1.47456E-01-1.31090E-13 3.52144E+01
 -1        85 1.54614E-12-8.12433E-13-4.70558E-12 1.42603E-01-4.03999E+01-1.91208E-13
 -1        86 6.41677E-02-4.29324E-01 9.85864E-01 6.37698E-02-2.23375E+01 1.50793E+00
 -1        87 3.37185E-01-3.37185E-01 5.14809E-12 1.19539E-12-1.08506E+01 1.08506E+01
 -1        88 4.53060E-13-6.80331E-13-2.59385E-12 8.36860E-02-1.43881E+01 7.21229E-14
 -1        89 4.29324E-01-6.41677E-02-9.85864E-01-6.37698E-02-1.50793E+00 2.23375E+01
 -1        90-3.70836E-13 1.50005E-12-2.55462E-13-2.04269E-12-5.12481E-14-1.36318E-12
 -1        91 5.36932E-14-1.28236E-12 3.89597E-12-8.36860E-02-1.69892E-13 1.43881E+01
 -1        92-2.66981E-13-3.72206E-12 9.18452E-12-1.42603E-01-1.44051E-13 4.03999E+01
 -1        93-2.22319E-12 4.31599E-13-4.22665E-12 1.59133E-01-2.39956E+01-4.15522E-13
 -1        94 3.76770E-01-3.76770E-01 3.56816E-12 1.06163E-12-6.42758E+00 6.42758E+00
 -1        95 2.37671E-13-7.28572E-13 1.88664E-13 7.61030E-13-2.25090E-12 3.82976E-13
 -1        96-1.56930E-12-3.47536E-12 8.14776E-12-1.59133E-01-1.58686E-13 2.39956E+01
 -1        97-1.53616E-12-4.79727E-13-5.23875E-12 1.53506E-01-2.96062E+01-2.08167E-15
 -1        98 6.70707E-02-4.64111E-01 1.06498E+00 6.86508E-02-1.52125E+01 1.01551E+00
 -1        99 3.63644E-01-3.63644E-01 3.04922E-12 1.72130E-12-7.94339E+00 7.94339E+00
 -1       100 1.48651E-12 8.54997E-13-1.95846E-12 9.04825E-02-9.80137E+00-1.10606E-13
 -1       101 4.64111E-01-6.70707E-02-1.06498E+00-6.86508E-02-1.01551E+00 1.52125E+01
 -1       102 8.97997E-13 1.06575E-13 2.44100E-13-6.05683E-13-1.03082E-12-7.80487E-14
 -1       103-1.12878E-12-1.79936E-12 4.10502E-12-9.04825E-02-1.27193E-12 9.80137E+00
 -1       104-1.07891E-12-2.77933E-12 7.85212E-12-1.53506E-01-2.18575E-13 2.96062E+01
 -1       105 2.78724E-12 3.14646E-12-4.79576E-12 1.63728E-01-1.20656E+01 6.62538E-13
 -1       106 3.90509E-01-3.90509E-01-2.31782E-12-1.73579E-12-3.29290E+00 3.29290E+00
 -1       107-3.85761E-12 1.12845E-12-1.68309E-14-1.53071E-12-1.64390E-12 9.30842E-13
 -1       108 1.07733E-11-4.87168E-12-1.89836E-13-1.63728E-01 8.90056E-14 1.20656E+01
 -1       109 1.30088E-13 4.34097E-14-3.86243E-12 1.66590E-01-1.80196E+01 1.57097E-14
 -1       110 6.97030E-02-4.82489E-01 1.05260E+00 7.03682E-02-7.67863E+00 5.59128E-01
 -1       111 3.93972E-01-3.93972E-01-4.46146E-13-7.54400E-13-4.87255E+00 4.87255E+00
 -1       112-3.33643E-13 2.09291E-12-2.48147E-12 9.33596E-02-4.94116E+00 9.27162E-13
 -1       113 4.82489E-01-6.97030E-02-1.05260E+00-7.03682E-02-5.59128E-01 7.67863E+00
 -1       114-1.29997E-12 1.06247E-12-2.88719E-13-4.35080E-13-1.59991E-12 1.01417E-12
 -1       115 2.41981E-12-1.94308E-12 2.47328E-14-9.33596E-02-6.59155E-13 4.94116E+00
 -1       116 2.27030E-12-2.93234E-12 4.10270E-12-1.66590E-01 1.88252E-14 1.80196E+01
 -1       117-1.25181E-12 2.25769E-12 1.28572E-12 2.42073E-01-3.95290E-01 5.47201E-13
 -1       118 5.23912E-01-5.23912E-01-4.19548E-12 3.46385E-12 2.00581E-01-2.00581E-01
 -1       119 1.50089E-12-2.28121E-12-4.99592E-13 2.01053E-12 3.47768E-13 1.20077E-12
 -1       120 6.79790E-13 1.14405E-12 1.08923E-12-2.42073E-01-5.65577E-13 3.95290E-01
 -1       121 1.22922E-12 4.79172E-13-1.64379E-12 1.44246E-01-6.23869E+00 5.35059E-13
 -1       122 1.75310E-01-5.81738E-01 9.98207E-01 1.13810E-01-9.53630E-02-1.85767E-01
 -1       123 3.39917E-01-3.39917E-01-3.08430E-12-8.57919E-13-1.53269E+00 1.53269E+00
 -1       124-5.86560E-13 9.22443E-13 2.10699E-13 1.28263E-01-1.02431E-01 8.76651E-13
 -1       125 5.81738E-01-1.75310E-01-9.98207E-01-1.13810E-01 1.85767E-01 9.53630E-02
 -1       126-7.14876E-14 8.88314E-13-1.22140E-13-5.29721E-14-6.38336E-13 1.02909E-12
 -1       127 4.93050E-13-1.40342E-12 5.16400E-13-1.28263E-01-1.36731E-14 1.02431E-01
 -1       128 1.58720E-12-5.60880E-13 4.52178E-13-1.44246E-01 3.41900E-13 6.23869E+00
 -1       129-3.87625E-05 3.87625E-05-5.06861E-12-1.69587E-14 4.02745E+01 4.02745E+01
 -1       130 2.77024E-15-5.35683E-15 2.26764E-12-4.01421E-06 4.35651E+01 9.13698E-13
 -1       131-9.89515E-13-3.25573E-13 1.01872E-12-3.11959E-01 8.30570E+01 1.94417E-13
 -1       132 8.38025E-01-8.38025E-01-7.22736E-12-4.51375E-15 1.69174E+01 1.69174E+01
 -1       133 5.45716E-05-4.95509E-05-8.53660E+00 1.80769E-06 2.02362E+01 4.18923E+01
 -1       134-2.78744E-14 7.54952E-15 1.09859E-12-2.20652E-06 2.17290E+01 7.36820E-13
 -1       135-1.25455E-13-9.63257E-14 5.61784E-13-2.14646E-01 3.30085E+01 4.31991E-13
 -1       136 1.30739E+00 1.90767E-01-3.20183E+00 9.73137E-02-1.02847E-01 4.99974E+01
 -1       137 4.95509E-05-5.45716E-05 8.53660E+00-1.80769E-06 4.18923E+01 2.02362E+01
 -1       138-7.14027E-13-4.93161E-13 1.81983E-12-1.63783E+00 6.31903E+01 4.52846E-13
 -1       139-1.90767E-01-1.30739E+00 3.20183E+00-9.73137E-02 4.99974E+01-1.02847E-01
 -1       140 3.38278E+00-3.38278E+00-6.02829E-12-4.58467E-13 2.87170E+01 2.87170E+01
 -1       141 1.89726E-12 7.06574E-13-1.13346E-12 5.54327E-02 7.22365E+01 7.00878E-13
 -1       142-1.97461E-01 1.97461E-01-6.12262E-12-1.54774E-13 2.04727E+01 2.04727E+01
 -1       143 6.09907E-13 2.15822E-13-7.09412E-13 6.12194E-02 2.97410E+01 3.52704E-13
 -1       144-4.65497E-01-2.33522E-01 1.07843E+00 5.78666E-03 3.78857E+00 4.63695E+01
 -1       145 2.68807E-13 6.76126E-14-3.13601E-13 4.84876E-01 7.78345E+01 2.49530E-13
 -1       146 2.33522E-01 4.65497E-01-1.07843E+00-5.78666E-03 4.63695E+01 3.78857E+00
 -1       147-9.06006E-01 9.06006E-01-6.71495E-12-6.87297E-14 1.85167E+01 1.85167E+01
 -1       148 1.18311E-12 3.18526E-12-2.71168E-12 7.15237E-02 6.92996E+01 1.25378E-13
 -1       149-1.56128E-01 1.56128E-01-1.19393E-12-2.30028E-12 1.83666E+01 1.83666E+01
 -1       150 1.51174E-13 7.60735E-13-1.33169E-12 2.98684E-02 2.82607E+01 4.78958E-13
 -1       151-1.08984E-01 1.23280E-01 3.41695E-01-4.16554E-02 2.82271E+00 4.38289E+01
 -1       152 1.30650E-12 2.20658E-12-1.86763E-12-3.49870E-02 7.07072E+01 3.73077E-13
 -1       153-1.23280E-01 1.08984E-01-3.41695E-01 4.16554E-02 4.38289E+01 2.82271E+00
 -1       154 2.01331E-02-2.01331E-02-4.16538E-12-8.38253E-13 1.94845E+01 1.94845E+01
 -1       155 1.15830E-12 2.58757E-12-3.10982E-12 9.61412E-02 6.26283E+01-6.07769E-14
 -1       156-2.29541E-01 2.29541E-01-2.77009E-12 3.25720E-12 1.68653E+01 1.68653E+01
 -1       157 8.42422E-13 5.10876E-13-1.48677E-12 5.82856E-02 2.56007E+01 9.99244E-14
 -1       158-3.11271E-01 9.96616E-03 6.81574E-01-3.78556E-02 2.70359E+00 3.97515E+01
 -1       159 6.74091E-13 3.06707E-12-2.48951E-12 1.09591E-01 6.59660E+01-1.01689E-13
 -1       160-9.96616E-03 3.11271E-01-6.81574E-01 3.78556E-02 3.97515E+01 2.70359E+00
 -1       161-2.44359E-01 2.44359E-01-1.47637E-12 7.35181E-13 1.76166E+01 1.76166E+01
 -1       162 1.58879E-12 2.78320E-12-3.25305E-12 1.16978E-01 5.48294E+01-2.09286E-13
 -1       163-2.77729E-01 2.77729E-01 3.64460E-12 6.50927E-13 1.47126E+01 1.47126E+01
 -1       164 9.09062E-13 3.18238E-13-1.43115E-12 6.53994E-02 2.23989E+01-1.17130E-12
 -1       165-3.33021E-01 5.91722E-02 7.75543E-01-5.15790E-02 2.34063E+00 3.47721E+01
 -1       166 7.68307E-13 3.76041E-12-3.55451E-12 1.03381E-01 5.87320E+01 1.81879E-13
 -1       167-5.91722E-02 3.33021E-01-7.75543E-01 5.15790E-02 3.47721E+01 2.34063E+00
 -1       168-2.47288E-01 2.47288E-01 6.76088E-13 1.83061E-12 1.57900E+01 1.57900E+01
 -1       169 2.68814E-13-4.37173E-12 4.00686E-12 1.33787E-01 4.55827E+01-4.03569E-13
 -1       170-3.16772E-01 3.16772E-01 1.13248E-11-1.76265E-14 1.22407E+01 1.22407E+01
 -1       171-4.33595E-13-2.22440E-13 2.00461E-12 7.64060E-02 1.86243E+01-1.06637E-12
 -1       172-3.92885E-01 5.40332E-02 8.98087E-01-5.73808E-02 1.94949E+00 2.89135E+01
 -1       173 5.23941E-13-4.85667E-13 2.87282E-13 1.27953E-01 5.02067E+01 4.37303E-13
 -1       174-5.40332E-02 3.92885E-01-8.98087E-01 5.73808E-02 2.89135E+01 1.94949E+00
 -1       175-3.02402E-01 3.02402E-01 7.17726E-12-8.62355E-13 1.34786E+01 1.34786E+01
 -1       176-2.03948E-12-1.16379E-13 4.73268E-12 1.47456E-01 3.52144E+01-2.41769E-13
 -1       177-3.49646E-01 3.49646E-01 1.56826E-11-4.47038E-14 9.45820E+00 9.45820E+00
 -1       178-5.12618E-13-3.30312E-13 2.03780E-12 8.36860E-02 1.43881E+01-3.58363E-13
 -1       179-4.29324E-01 6.41677E-02 9.85864E-01-6.37698E-02 1.50793E+00 2.23375E+01
 -1       180-1.39214E-12-2.66151E-12 4.39505E-12 1.42603E-01 4.03999E+01-4.00506E-13
 -1       181-6.41677E-02 4.29324E-01-9.85864E-01 6.37698E-02 2.23375E+01 1.50793E+00
 -1       182-3.37185E-01 3.37185E-01 1.34756E-11-1.22630E-12 1.08506E+01 1.08506E+01
 -1       183-7.46809E-13-1.97484E-12 5.02877E-12 1.59133E-01 2.39956E+01-1.50956E-13
 -1       184-3.76770E-01 3.76770E-01 1.06031E-11 5.02530E-12 6.42758E+00 6.42758E+00
 -1       185-2.50523E-12-1.88849E-13 2.58470E-12 9.04825E-02 9.80137E+00 4.63139E-13
 -1       186-4.64111E-01 6.70707E-02 1.06498E+00-6.86508E-02 1.01551E+00 1.52125E+01
 -1       187 5.50565E-14-1.30773E-12 5.23100E-12 1.53506E-01 2.96062E+01 1.65489E-13
 -1       188-6.70707E-02 4.64111E-01-1.06498E+00 6.86508E-02 1.52125E+01 1.01551E+00
 -1       189-3.63644E-01 3.63644E-01 1.33276E-11 1.63845E-12 7.94339E+00 7.94339E+00
 -1       190 2.89475E-12-2.87911E-12 3.00411E-12 1.63728E-01 1.20656E+01 6.83186E-13
 -1       191-3.90509E-01 3.90509E-01 5.74856E-12 1.04420E-12 3.29290E+00 3.29290E+00
 -1       192-4.84181E-13-3.04611E-13 1.44915E-12 9.33596E-02 4.94116E+00 4.82310E-13
 -1       193-4.82489E-01 6.97030E-02 1.05260E+00-7.03682E-02 5.59128E-01 7.67863E+00
 -1       194 2.01265E-12-8.11351E-13 3.71548E-12 1.66590E-01 1.80196E+01-7.35609E-14
 -1       195-6.97030E-02 4.82489E-01-1.05260E+00 7.03682E-02 7.67863E+00 5.59128E-01
 -1       196-3.93972E-01 3.93972E-01 8.40886E-12 2.24932E-12 4.87255E+00 4.87255E+00
 -1       197 2.25431E-13-2.82740E-12 6.66354E-13 2.42073E-01 3.95290E-01-3.68284E-13
 -1       198-5.23912E-01 5.23912E-01-4.43187E-13 6.81229E-12-2.00581E-01-2.00581E-01
 -1       199 1.27599E-12-2.27175E-12-2.05553E-13 1.28263E-01 1.02431E-01 1.48453E-13
 -1       200-5.81738E-01 1.75310E-01 9.98207E-01-1.13810E-01-1.85767E-01 9.53630E-02
 -1       201 1.82306E-12-1.18497E-12 1.82134E-12 1.44246E-01 6.23869E+00 2.56547E-13
 -1       202-1.75310E-01 5.81738E-01-9.98207E-01 1.13810E-01 9.53630E-02-1.85767E-01
 -1       203-3.39917E-01 3.39917E-01 2.22108E-12 2.97164E-12 1.53269E+00 1.53269E+00
 -1       204-3.87625E-05 3.87625E-05 5.14511E-12 6.05765E-14-4.02745E+01-4.02745E+01
 -1       205 8.38025E-01-8.38025E-01 6.51060E-12-3.34021E-13-1.69174E+01-1.69174E+01
 -1       206 7.52176E-15 5.53036E-14 7.09170E-12 4.01421E-06 1.23137E-12-4.35651E+01
 -1       207-2.15117E-12-2.82049E-12 8.15035E-12 3.11959E-01 6.76317E-14-8.30570E+01
 -1       208 4.95509E-05-5.45716E-05 8.53660E+00-1.80769E-06-4.18923E+01-2.02362E+01
 -1       209 3.38278E+00-3.38278E+00 5.86164E-12 1.71321E-13-2.87170E+01-2.87170E+01
 -1       210-1.90767E-01-1.30739E+00 3.20183E+00-9.73137E-02-4.99974E+01 1.02847E-01
 -1       211 5.45716E-05-4.95509E-05-8.53660E+00 1.80769E-06-2.02362E+01-4.18923E+01
 -1       212 1.30739E+00 1.90767E-01-3.20183E+00 9.73137E-02 1.02847E-01-4.99974E+01
 -1       213 1.40027E-14 4.27293E-14 3.50461E-12 2.20652E-06 5.15058E-13-2.17290E+01
 -1       214-2.67431E-12-2.36852E-12 7.88731E-12 1.63783E+00 6.72244E-13-6.31903E+01
 -1       215-1.12879E-12-9.12140E-13 3.99057E-12 2.14646E-01 3.37739E-13-3.30085E+01
 -1       216-1.97461E-01 1.97461E-01 6.23010E-12-3.09353E-14-2.04727E+01-2.04727E+01
 -1       217-1.71499E-12-1.43310E-12 4.92574E-12-5.54327E-02 2.28258E-13-7.22365E+01
 -1       218-9.06006E-01 9.06006E-01 6.68524E-12-1.06096E-13-1.85167E+01-1.85167E+01
 -1       219 2.33522E-01 4.65497E-01-1.07843E+00-5.78666E-03-4.63695E+01-3.78857E+00
 -1       220-4.65497E-01-2.33522E-01 1.07843E+00 5.78666E-03-3.78857E+00-4.63695E+01
 -1       221-2.61891E-12-2.49379E-12 6.24343E-12-4.84876E-01-1.26628E-13-7.78345E+01
 -1       222-3.61945E-13-6.15939E-13 2.25505E-12-6.12194E-02 1.15771E-12-2.97410E+01
 -1       223-1.56128E-01 1.56128E-01 1.35046E-12 4.22781E-13-1.83666E+01-1.83666E+01
 -1       224-1.67877E-12 1.12206E-12-5.59160E-13-7.15237E-02 4.04758E-13-6.92996E+01
 -1       225 2.01331E-02-2.01331E-02 3.85507E-12 4.37770E-13-1.94845E+01-1.94845E+01
 -1       226-1.23280E-01 1.08984E-01-3.41695E-01 4.16554E-02-4.38289E+01-2.82271E+00
 -1       227-1.08984E-01 1.23280E-01 3.41695E-01-4.16554E-02-2.82271E+00-4.38289E+01
 -1       228-1.51876E-12 2.66609E-13 2.13516E-12 3.49870E-02 7.59046E-14-7.07072E+01
 -1       229-1.10496E-12 5.44371E-14-7.64406E-14-2.98684E-02 1.28013E-12-2.82607E+01
 -1       230-2.29541E-01 2.29541E-01 3.23916E-12 3.25486E-13-1.68653E+01-1.68653E+01
 -1       231-1.82646E-13 8.30972E-13-1.55899E-12-9.61412E-02 9.76076E-13-6.26283E+01
 -1       232-2.44359E-01 2.44359E-01 1.56795E-12 4.20365E-13-1.76166E+01-1.76166E+01
 -1       233-9.96616E-03 3.11271E-01-6.81574E-01 3.78556E-02-3.97515E+01-2.70359E+00
 -1       234-3.11271E-01 9.96616E-03 6.81574E-01-3.78556E-02-2.70359E+00-3.97515E+01
 -1       235-2.50855E-13 7.69200E-13-9.96669E-13-1.09591E-01-3.86288E-14-6.59660E+01
 -1       236 7.56700E-13 2.73284E-13-8.09479E-13-5.82856E-02 9.00051E-13-2.56007E+01
 -1       237-2.77729E-01 2.77729E-01-4.68731E-12 1.21231E-12-1.47126E+01-1.47126E+01
 -1       238-2.36249E-12 8.69308E-13-5.57810E-12-1.16978E-01 8.92660E-13-5.48294E+01
 -1       239-2.47288E-01 2.47288E-01-2.73830E-13 4.28851E-13-1.57900E+01-1.57900E+01
 -1       240-5.91722E-02 3.33021E-01-7.75543E-01 5.15790E-02-3.47721E+01-2.34063E+00
 -1       241-3.33021E-01 5.91722E-02 7.75543E-01-5.15790E-02-2.34063E+00-3.47721E+01
 -1       242-4.39704E-13 1.08909E-12-3.77237E-12-1.03381E-01 6.53543E-13-5.87320E+01
 -1       243-7.27692E-13 7.51639E-13-2.71932E-12-6.53994E-02 1.14027E-12-2.23989E+01
 -1       244-3.16772E-01 3.16772E-01-1.14787E-11-6.62768E-13-1.22407E+01-1.22407E+01
 -1       245 3.15886E-13 1.48558E-12-9.28725E-12-1.33787E-01 7.51817E-13-4.55827E+01
 -1       246-3.02402E-01 3.02402E-01-7.44364E-12 1.07489E-13-1.34786E+01-1.34786E+01
 -1       247-5.40332E-02 3.92885E-01-8.98087E-01 5.73808E-02-2.89135E+01-1.94949E+00
 -1       248-3.92885E-01 5.40332E-02 8.98087E-01-5.73808E-02-1.94949E+00-2.89135E+01
 -1       249 8.26533E-13 1.11762E-12-7.16964E-12-1.27953E-01 3.35010E-13-5.02067E+01
 -1       250 3.02140E-13 1.12293E-12-4.52355E-12-7.64060E-02 7.42416E-13-1.86243E+01
 -1       251-3.49646E-01 3.49646E-01-1.44968E-11 1.01647E-12-9.45820E+00-9.45820E+00
 -1       252 9.49879E-13 3.18152E-13-8.72719E-12-1.47456E-01-5.81465E-13-3.52144E+01
 -1       253-3.37185E-01 3.37185E-01-1.33283E-11-7.11256E-13-1.08506E+01-1.08506E+01
 -1       254-6.41677E-02 4.29324E-01-9.85864E-01 6.37698E-02-2.23375E+01-1.50793E+00
 -1       255-4.29324E-01 6.41677E-02 9.85864E-01-6.37698E-02-1.50793E+00-2.23375E+01
 -1       256 8.47017E-13 7.26652E-13-9.05812E-12-1.42603E-01 6.37268E-14-4.03999E+01
 -1       257 5.14984E-13 1.33338E-12-4.51819E-12-8.36860E-02-5.85385E-13-1.43881E+01
 -1       258-3.76770E-01 3.76770E-01-1.13085E-11 2.09717E-12-6.42758E+00-6.42758E+00
 -1       259-5.55805E-13 7.14029E-13-7.27971E-12-1.59133E-01-9.33015E-13-2.39956E+01
 -1       260-3.63644E-01 3.63644E-01-1.37047E-11 8.64470E-13-7.94339E+00-7.94339E+00
 -1       261-6.70707E-02 4.64111E-01-1.06498E+00 6.86508E-02-1.52125E+01-1.01551E+00
 -1       262-4.64111E-01 6.70707E-02 1.06498E+00-6.86508E-02-1.01551E+00-1.52125E+01
 -1       263 1.08685E-12 1.38082E-12-8.02561E-12-1.53506E-01-3.88023E-14-2.96062E+01
 -1       264 2.29233E-13-6.02547E-13-3.40273E-12-9.04825E-02-1.43842E-12-9.80137E+00
 -1       265-3.90509E-01 3.90509E-01-3.25567E-12-1.10915E-12-3.29290E+00-3.29290E+00
 -1       266-9.37306E-13-4.86929E-13-5.93819E-13-1.63728E-01 1.76990E-13-1.20656E+01
 -1       267-3.93972E-01 3.93972E-01-7.52844E-12 1.08526E-13-4.87255E+00-4.87255E+00
 -1       268-6.97030E-02 4.82489E-01-1.05260E+00 7.03682E-02-7.67863E+00-5.59128E-01
 -1       269-4.82489E-01 6.97030E-02 1.05260E+00-7.03682E-02-5.59128E-01-7.67863E+00
 -1       270 6.23279E-13 9.45111E-14-4.40753E-12-1.66590E-01-3.47231E-13-1.80196E+01
 -1       271-1.35212E-12 5.95640E-14-3.49901E-13-9.33596E-02-9.61492E-13-4.94116E+00
 -1       272-5.23912E-01 5.23912E-01-1.95393E-12 2.81553E-13 2.00581E-01 2.00581E-01
 -1       273 3.69049E-12 1.63074E-13 3.06498E-15-2.42073E-01 1.08983E-12-3.95290E-01
 -1       274-3.39917E-01 3.39917E-01-1.95386E-12 1.35746E-12-1.53269E+00-1.53269E+00
 -1       275-1.75310E-01 5.81738E-01-9.98207E-01 1.13810E-01-9.53630E-02 1.85767E-01
 -1       276-5.81738E-01 1.75310E-01 9.98207E-01-1.13810E-01 1.85767E-01-9.53630E-02
 -1       277-6.96637E-13 1.04687E-12 1.78341E-13-1.44246E-01 5.29954E-13-6.23869E+00
 -1       278 2.97926E-12-7.50136E-13-5.88365E-13-1.28263E-01 5.43361E-13-1.02431E-01
 -1       279 3.87625E-05-3.87625E-05 1.05915E-11-3.55404E-14 4.02745E+01-4.02745E+01
 -1       280-8.38025E-01 8.38025E-01 8.36827E-12-1.31714E-13 1.69174E+01-1.69174E+01
 -1       281-5.45716E-05 4.95509E-05 8.53660E+00 1.80769E-06 2.02362E+01-4.18923E+01
 -1       282-1.30739E+00-1.90767E-01 3.20183E+00 9.73137E-02-1.02847E-01-4.99974E+01
 -1       283-4.95509E-05 5.45716E-05-8.53660E+00-1.80769E-06 4.18923E+01-2.02362E+01
 -1       284-3.38278E+00 3.38278E+00 9.61527E-12-4.45145E-13 2.87170E+01-2.87170E+01
 -1       285 1.90767E-01 1.30739E+00-3.20183E+00-9.73137E-02 4.99974E+01 1.02847E-01
 -1       286 1.97461E-01-1.97461E-01 3.85171E-12 3.95435E-13 2.04727E+01-2.04727E+01
 -1       287 4.65497E-01 2.33522E-01-1.07843E+00 5.78666E-03 3.78857E+00-4.63695E+01
 -1       288 9.06006E-01-9.06006E-01 6.19714E-12 4.34881E-13 1.85167E+01-1.85167E+01
 -1       289-2.33522E-01-4.65497E-01 1.07843E+00-5.78666E-03 4.63695E+01-3.78857E+00
 -1       290 1.56128E-01-1.56128E-01-3.08831E-12-1.20569E-12 1.83666E+01-1.83666E+01
 -1       291 1.08984E-01-1.23280E-01-3.41695E-01-4.16554E-02 2.82271E+00-4.38289E+01
 -1       292-2.01331E-02 2.01331E-02 3.11963E-13-1.83657E-13 1.94845E+01-1.94845E+01
 -1       293 1.23280E-01-1.08984E-01 3.41695E-01 4.16554E-02 4.38289E+01-2.82271E+00
 -1       294 2.29541E-01-2.29541E-01-4.13150E-12 2.09035E-12 1.68653E+01-1.68653E+01
 -1       295 3.11271E-01-9.96616E-03-6.81574E-01-3.78556E-02 2.70359E+00-3.97515E+01
 -1       296 2.44359E-01-2.44359E-01-3.37329E-12 1.36136E-12 1.76166E+01-1.76166E+01
 -1       297 9.96616E-03-3.11271E-01 6.81574E-01 3.78556E-02 3.97515E+01-2.70359E+00
 -1       298 2.77729E-01-2.77729E-01-9.43879E-12-3.50662E-12 1.47126E+01-1.47126E+01
 -1       299 3.33021E-01-5.91722E-02-7.75543E-01-5.15790E-02 2.34063E+00-3.47721E+01
 -1       300 2.47288E-01-2.47288E-01-7.37102E-12 5.35574E-13 1.57900E+01-1.57900E+01
 -1       301 5.91722E-02-3.33021E-01 7.75543E-01 5.15790E-02 3.47721E+01-2.34063E+00
 -1       302 3.16772E-01-3.16772E-01-4.79673E-12-2.28688E-13 1.22407E+01-1.22407E+01
 -1       303 3.92885E-01-5.40332E-02-8.98087E-01-5.73808E-02 1.94949E+00-2.89135E+01
 -1       304 3.02402E-01-3.02402E-01-7.32866E-12-8.20406E-13 1.34786E+01-1.34786E+01
 -1       305 5.40332E-02-3.92885E-01 8.98087E-01 5.73808E-02 2.89135E+01-1.94949E+00
 -1       306 3.49646E-01-3.49646E-01-4.80675E-12 4.48363E-14 9.45820E+00-9.45820E+00
 -1       307 4.29324E-01-6.41677E-02-9.85864E-01-6.37698E-02 1.50793E+00-2.23375E+01
 -1       308 3.37185E-01-3.37185E-01-4.21760E-12 5.94795E-13 1.08506E+01-1.08506E+01
 -1       309 6.41677E-02-4.29324E-01 9.85864E-01 6.37698E-02 2.23375E+01-1.50793E+00
 -1       310 3.76770E-01-3.76770E-01-1.64353E-12-1.34319E-12 6.42758E+00-6.42758E+00
 -1       311 4.64111E-01-6.70707E-02-1.06498E+00-6.86508E-02 1.01551E+00-1.52125E+01
 -1       312 3.63644E-01-3.63644E-01-3.39900E-12 2.51234E-13 7.94339E+00-7.94339E+00
 -1       313 6.70707E-02-4.64111E-01 1.06498E+00 6.86508E-02 1.52125E+01-1.01551E+00
 -1       314 3.90509E-01-3.90509E-01 1.78104E-12-1.79326E-12 3.29290E+00-3.29290E+00
 -1       315 4.82489E-01-6.97030E-02-1.05260E+00-7.03682E-02 5.59128E-01-7.67863E+00
 -1       316 3.93972E-01-3.93972E-01 1.58478E-13-1.24009E-12 4.87255E+00-4.87255E+00
 -1       317 6.97030E-02-4.82489E-01 1.05260E+00 7.03682E-02 7.67863E+00-5.59128E-01
 -1       318 5.23912E-01-5.23912E-01-8.12131E-13-1.53584E-12-2.00581E-01 2.00581E-01
 -1       319 5.81738E-01-1.75310E-01-9.98207E-01-1.13810E-01-1.85767E-01-9.53630E-02
 -1       320 3.39917E-01-3.39917E-01 4.08189E-13-1.97075E-12 1.53269E+00-1.53269E+00
 -1       321 1.75310E-01-5.81738E-01 9.98207E-01 1.13810E-01 9.53630E-02 1.85767E-01
 -3
    1PSTEP                        20           1           1          
    1PGM                1.000000E+00                                  
    1PGK                2.192810E+09                                  
    1PHID                         -1                                  
    1PSUBC                         0                                  
    1PMODE                         5                                  
  100CL  105 7452.820500         321                     2    5MODAL      1
 -4  ERROR       1    1
 -5  STR(%)      1    1    0    0
 -1         1 1.87707E+01
 -1         2 1.87707E+01
 -1         3 1.88741E+01
 -1         4 1.88741E+01
 -1         5 1.87707E+01
 -1         6 1.87707E+01
 -1         7 1.88741E+01
 -1         8 1.88741E+01
 -1         9 1.87707E+01
 -1        10 1.88224E+01
 -1        11 1.88741E+01
 -1        12 1.88224E+01
 -1        13 1.87707E+01
 -1        14 1.87707E+01
 -1        15 1.88741E+01
 -1        16 1.88741E+01
 -1        17 1.87707E+01
 -1        18 1.88224E+01
 -1        19 1.88741E+01
 -1        20 1.88224E+01
 -1        21 1.88741E+01
 -1        22 1.88741E+01
 -1        23 1.88741E+01
 -1        24 1.88741E+01
 -1        25 1.88741E+01
 -1        26 1.88741E+01
 -1        27 1.88741E+01
 -1        28 1.88741E+01
 -1        29 1.88741E+01
 -1        30 1.88741E+01
 -1        31 1.88741E+01
 -1        32 1.88741E+01
 -1        33 1.87751E+01
 -1        34 1.87751E+01
 -1        35 1.87751E+01
 -1        36 1.87751E+01
 -1        37 1.88246E+01
 -1        38 1.87751E+01
 -1        39 1.88246E+01
 -1        40 1.87751E+01
 -1        41 1.87751E+01
 -1        42 1.88246E+01
 -1        43 1.87751E+01
 -1        44 1.88246E+01
 -1        45 1.88566E+01
 -1        46 1.88566E+01
 -1        47 1.88566E+01
 -1        48 1.88566E+01
 -1        49 1.88159E+01
 -1        50 1.88566E+01
 -1        51 1.88159E+01
 -1        52 1.88566E+01
 -1        53 1.88566E+01
 -1        54 1.88159E+01
 -1        55 1.88566E+01
 -1        56 1.88159E+01
 -1        57 1.89719E+01
 -1        58 1.89719E+01
 -1        59 1.89719E+01
 -1        60 1.89719E+01
 -1        61 1.89143E+01
 -1        62 1.89719E+01
 -1        63 1.89143E+01
 -1        64 1.89719E+01
 -1        65 1.89719E+01
 -1        66 1.89143E+01
 -1        67 1.89719E+01
 -1        68 1.89143E+01
 -1        69 1.91362E+01
 -1        70 1.91362E+01
 -1        71 1.91362E+01
 -1        72 1.91362E+01
 -1        73 1.90540E+01
 -1        74 1.91362E+01
 -1        75 1.90540E+01
 -1        76 1.91362E+01
 -1        77 1.91362E+01
 -1        78 1.90540E+01
 -1        79 1.91362E+01
 -1        80 1.90540E+01
 -1        81 1.93936E+01
 -1        82 1.93936E+01
 -1        83 1.93936E+01
 -1        84 1.93936E+01
 -1        85 1.92649E+01
 -1        86 1.93936E+01
 -1        87 1.92649E+01
 -1        88 1.93936E+01
 -1        89 1.93936E+01
 -1        90 1.92649E+01
 -1        91 1.93936E+01
 -1        92 1.92649E+01
 -1        93 1.99005E+01
 -1        94 1.99005E+01
 -1        95 1.99005E+01
 -1        96 1.99005E+01
 -1        97 1.96470E+01
 -1        98 1.99005E+01
 -1        99 1.96470E+01
 -1       100 1.99005E+01
 -1       101 1.99005E+01
 -1       102 1.96470E+01
 -1       103 1.99005E+01
 -1       104 1.96470E+01
 -1       105 2.14673E+01
 -1       106 2.14673E+01
 -1       107 2.14673E+01
 -1       108 2.14673E+01
 -1       109 2.06839E+01
 -1       110 2.14673E+01
 -1       111 2.06839E+01
 -1       112 2.14673E+01
 -1       113 2.14673E+01
 -1       114 2.06839E+01
 -1       115 2.14673E+01
 -1       116 2.06839E+01
 -1       117 2.14673E+01
 -1       118 2.14673E+01
 -1       119 2.14673E+01
 -1       120 2.14673E+01
 -1       121 2.14673E+01
 -1       122 2.14673E+01
 -1       123 2.14673E+01
 -1       124 2.14673E+01
 -1       125 2.14673E+01
 -1       126 2.14673E+01
 -1       127 2.14673E+01
 -1       128 2.14673E+01
 -1       129 1.87707E+01
 -1       130 1.87707E+01
 -1       131 1.88741E+01
 -1       132 1.88741E+01
 -1       133 1.87707E+01
 -1       134 1.87707E+01
 -1       135 1.88741E+01
 -1       136 1.88741E+01
 -1       137 1.87707E+01
 -1       138 1.88224E+01
 -1       139 1.88741E+01
 -1       140 1.88224E+01
 -1       141 1.88741E+01
 -1       142 1.88741E+01
 -1       143 1.88741E+01
 -1       144 1.88741E+01
 -1       145 1.88741E+01
 -1       146 1.88741E+01
 -1       147 1.88741E+01
 -1       148 1.87751E+01
 -1       149 1.87751E+01
 -1       150 1.87751E+01
 -1       151 1.87751E+01
 -1       152 1.88246E+01
 -1       153 1.87751E+01
 -1       154 1.88246E+01
 -1       155 1.88566E+01
 -1       156 1.88566E+01
 -1       157 1.88566E+01
 -1       158 1.88566E+01
 -1       159 1.88159E+01
 -1       160 1.88566E+01
 -1       161 1.88159E+01
 -1       162 1.89719E+01
 -1       163 1.89719E+01
 -1       164 1.89719E+01
 -1       165 1.89719E+01
 -1       166 1.89143E+01
 -1       167 1.89719E+01
 -1       168 1.89143E+01
 -1       169 1.91362E+01
 -1       170 1.91362E+01
 -1       171 1.91362E+01
 -1       172 1.91362E+01
 -1       173 1.90540E+01
 -1       174 1.91362E+01
 -1       175 1.90540E+01
 -1       176 1.93936E+01
 -1       177 1.93936E+01
 -1       178 1.93936E+01
 -1       179 1.93936E+01
 -1       180 1.92649E+01
 -1       181 1.93936E+01
 -1       182 1.92649E+01
 -1       183 1.99005E+01
 -1       184 1.99005E+01
 -1       185 1.99005E+01
 -1       186 1.99005E+01
 -1       187 1.96470E+01
 -1       188 1.99005E+01
 -1       189 1.96470E+01
 -1       190 2.14673E+01
 -1       191 2.14673E+01
 -1       192 2.14673E+01
 -1       193 2.14673E+01
 -1       194 2.06839E+01
 -1       195 2.14673E+01
 -1       196 2.06839E+01
 -1       197 2.14673E+01
 -1       198 2.14673E+01
 -1       199 2.14673E+01
 -1       200 2.14673E+01
 -1       201 2.14673E+01
 -1       202 2.14673E+01
 -1       203 2.14673E+01
 -1       204 1.87707E+01
 -1       205 1.88741E+01
 -1       206 1.87707E+01
 -1       207 1.88741E+01
 -1       208 1.87707E+01
 -1       209 1.88224E+01
 -1       210 1.88741E+01
 -1       211 1.87707E+01
 -1       212 1.88741E+01
 -1       213 1.87707E+01
 -1       214 1.88224E+01
 -1       215 1.88741E+01
 -1       216 1.88741E+01
 -1       217 1.88741E+01
 -1       218 1.88741E+01
 -1       219 1.88741E+01
 -1       220 1.88741E+01
 -1       221 1.88741E+01
 -1       222 1.88741E+01
 -1       223 1.87751E+01
 -1       224 1.87751E+01
 -1       225 1.88246E+01
 -1       226 1.87751E+01
 -1       227 1.87751E+01
 -1       228 1.88246E+01
 -1       229 1.87751E+01
 -1       230 1.88566E+01
 -1       231 1.88566E+01
 -1       232 1.88159E+01
 -1       233 1.88566E+01
 -1       234 1.88566E+01
 -1       235 1.88159E+01
 -1       236 1.88566E+01
 -1       237 1.89719E+01
 -1       238 1.89719E+01
 -1       239 1.89143E+01
 -1       240 1.89719E+01
 -1       241 1.89719E+01
 -1       242 1.89143E+01
 -1       243 1.89719E+01
 -1       244 1.91362E+01
 -1       245 1.91362E+01
 -1       246 1.90540E+01
 -1       247 1.91362E+01
 -1       248 1.91362E+01
 -1       249 1.90540E+01
 -1       250 1.91362E+01
 -1       251 1.93936E+01
 -1       252 1.93936E+01
 -1       253 1.92649E+01
 -1       254 1.93936E+01
 -1       255 1.93936E+01
 -1       256 1.92649E+01
 -1       257 1.93936E+01
 -1       258 1.99005E+01
 -1       259 1.99005E+01
 -1       260 1.96470E+01
 -1       261 1.99005E+01
 -1       262 1.99005E+01
 -1       263 1.96470E+01
 -1       264 1.99005E+01
 -1       265 2.14673E+01
 -1       266 2.14673E+01
 -1       267 2.06839E+01
 -1       268 2.14673E+01
 -1       269 2.14673E+01
 -1       270 2.06839E+01
 -1       271 2.14673E+01
 -1       272 2.14673E+01
 -1       273 2.14673E+01
 -1       274 2.14673E+01
 -1       275 2.14673E+01
 -1       276 2.14673E+01
 -1       277 2.14673E+01
 -1       278 2.14673E+01
 -1       279 1.87707E+01
 -1       280 1.88741E+01
 -1       281 1.87707E+01
 -1       282 1.88741E+01
 -1       283 1.87707E+01
 -1       284 1.88224E+01
 -1       285 1.88741E+01
 -1       286 1.88741E+01
 -1       287 1.88741E+01
 -1       288 1.88741E+01
 -1       289 1.88741E+01
 -1       290 1.87751E+01
 -1       291 1.87751E+01
 -1       292 1.88246E+01
 -1       293 1.87751E+01
 -1       294 1.88566E+01
 -1       295 1.88566E+01
 -1       296 1.88159E+01
 -1       297 1.88566E+01
 -1       298 1.89719E+01
 -1       299 1.89719E+01
 -1       300 1.89143E+01
 -1       301 1.89719E+01
 -1       302 1.91362E+01
 -1       303 1.91362E+01
 -1       304 1.90540E+01
 -1       305 1.91362E+01
 -1       306 1.93936E+01
 -1       307 1.93936E+01
 -1       308 1.92649E+01
 -1       309 1.93936E+01
 -1       310 1.99005E+01
 -1       311 1.99005E+01
 -1       312 1.96470E+01
 -1       313 1.99005E+01
 -1       314 2.14673E+01
 -1       315 2.14673E+01
 -1       316 2.06839E+01
 -1       317 2.14673E+01
 -1       318 2.14673E+01
 -1       319 2.14673E+01
 -1       320 2.14673E+01
 -1       321 2.14673E+01
 -3
    1PSTEP                        21           1           1          
    1PGM                1.000000E+00                                  
    1PGK                6.661483E+09                                  
    1PHID                         -1                                  
    1PSUBC                         0                                  
    1PMODE                         6                                  
  100CL  106 12989.89356         321                     2    6MODAL      1
 -4  DISP        4    1
 -5  D1          1    2    1    0
 -5  D2          1    2    2    0
 -5  D3          1    2    3    0
 -5  ALL         1    2    0    0    1ALL
 -1         1 0.00000E+00 0.00000E+00 0.00000E+00
 -1         2 0.00000E+00 0.00000E+00 0.00000E+00
 -1         3-1.17462E-01-4.15223E-13 7.60941E-01
 -1         4-1.13728E-01-1.13728E-01 7.56804E-01
 -1         5 0.00000E+00 0.00000E+00 0.00000E+00
 -1         6 0.00000E+00 0.00000E+00 0.00000E+00
 -1         7 1.02318E-12-4.30767E-13 7.65310E-01
 -1         8 1.00142E-12-1.17462E-01 7.60941E-01
 -1         9 0.00000E+00 0.00000E+00 0.00000E+00
 -1        10-1.18177E-01-1.33560E-13 3.56734E-01
 -1        11-1.15363E-01-5.72392E-02 7.57064E-01
 -1        12-1.18014E-01-1.18014E-01 3.77030E-01
 -1        13 0.00000E+00 0.00000E+00 0.00000E+00
 -1        14 0.00000E+00 0.00000E+00 0.00000E+00
 -1        15-5.87254E-02-4.28546E-13 7.61338E-01
 -1        16-5.72392E-02-1.15363E-01 7.57064E-01
 -1        17 0.00000E+00 0.00000E+00 0.00000E+00
 -1        18 3.59601E-13-1.53599E-13 3.35882E-01
 -1        19 1.01918E-12-5.87254E-02 7.61338E-01
 -1        20 3.20188E-13-1.18177E-01 3.56734E-01
 -1        21-1.14576E-01-1.01652E-12 1.53349E+00
 -1        22-1.14035E-01-1.14035E-01 1.53152E+00
 -1        23 2.44293E-12-1.01874E-12 1.53487E+00
 -1        24 2.45359E-12-1.14576E-01 1.53349E+00
 -1        25-1.16432E-01-7.37188E-13 1.14997E+00
 -1        26-1.14416E-01-5.69083E-02 1.53326E+00
 -1        27-1.16943E-01-1.16943E-01 1.14884E+00
 -1        28-5.72853E-02-1.01386E-12 1.53495E+00
 -1        29-5.69083E-02-1.14416E-01 1.53326E+00
 -1        30 1.77769E-12-7.42517E-13 1.15144E+00
 -1        31 2.44027E-12-5.72853E-02 1.53495E+00
 -1        32 1.77280E-12-1.16432E-01 1.14997E+00
 -1        33-1.07259E-01-1.21525E-12 2.27231E+00
 -1        34-1.07199E-01-1.07199E-01 2.27022E+00
 -1        35 2.94564E-12-1.22147E-12 2.27435E+00
 -1        36 2.96563E-12-1.07259E-01 2.27231E+00
 -1        37-1.10842E-01-1.18527E-12 1.90872E+00
 -1        38-1.07198E-01-5.36885E-02 2.27170E+00
 -1        39-1.10909E-01-1.10909E-01 1.90706E+00
 -1        40-5.36917E-02-1.21500E-12 2.27377E+00
 -1        41-5.36885E-02-1.07198E-01 2.27170E+00
 -1        42 2.86171E-12-1.18905E-12 1.91057E+00
 -1        43 2.94476E-12-5.36917E-02 2.27377E+00
 -1        44 2.87903E-12-1.10842E-01 1.90872E+00
 -1        45-9.73959E-02-8.18234E-13 2.95403E+00
 -1        46-9.74106E-02-9.74106E-02 2.95124E+00
 -1        47 2.01195E-12-8.25118E-13 2.95680E+00
 -1        48 2.01245E-12-9.73959E-02 2.95403E+00
 -1        49-1.02492E-01-1.08469E-12 2.62132E+00
 -1        50-9.74206E-02-4.87379E-02 2.95335E+00
 -1        51-1.02502E-01-1.02502E-01 2.61885E+00
 -1        52-4.87421E-02-8.22009E-13 2.95613E+00
 -1        53-4.87379E-02-9.74206E-02 2.95335E+00
 -1        54 2.65366E-12-1.09601E-12 2.62378E+00
 -1        55 2.00340E-12-4.87421E-02 2.95613E+00
 -1        56 2.66642E-12-1.02492E-01 2.62132E+00
 -1        57-8.51775E-02 3.33067E-16 3.56250E+00
 -1        58-8.51859E-02-8.51859E-02 3.55917E+00
 -1        59 6.83897E-14-2.42029E-14 3.56583E+00
 -1        60 4.59632E-14-8.51775E-02 3.56250E+00
 -1        61-9.14245E-02-4.31821E-13 3.26844E+00
 -1        62-8.51830E-02-4.26344E-02 3.56167E+00
 -1        63-9.14380E-02-9.14380E-02 3.26538E+00
 -1        64-4.26298E-02-1.19904E-14 3.56500E+00
 -1        65-4.26344E-02-8.51830E-02 3.56167E+00
 -1        66 1.10512E-12-4.45199E-13 3.27150E+00
 -1        67 5.58720E-14-4.26298E-02 3.56500E+00
 -1        68 1.10151E-12-9.14245E-02 3.26844E+00
 -1        69-7.08277E-02 7.83956E-13 4.08238E+00
 -1        70-7.08372E-02-7.08372E-02 4.07855E+00
 -1        71-1.78546E-12 7.48068E-13 4.08620E+00
 -1        72-1.84253E-12-7.08277E-02 4.08238E+00
 -1        73-7.81257E-02 4.30100E-13 3.83438E+00
 -1        74-7.08376E-02-3.54496E-02 4.08142E+00
 -1        75-7.81349E-02-7.81349E-02 3.83078E+00
 -1        76-3.54475E-02 7.73048E-13 4.08524E+00
 -1        77-3.54496E-02-7.08376E-02 4.08142E+00
 -1        78-9.49296E-13 3.93463E-13 3.83797E+00
 -1        79-1.79989E-12-3.54475E-02 4.08524E+00
 -1        80-9.87432E-13-7.81257E-02 3.83438E+00
 -1        81-5.47223E-02 1.07248E-12 4.50078E+00
 -1        82-5.47289E-02-5.47289E-02 4.49656E+00
 -1        83-2.47624E-12 1.05116E-12 4.50499E+00
 -1        84-2.53531E-12-5.47223E-02 4.50078E+00
 -1        85-6.28730E-02 1.00897E-12 4.30498E+00
 -1        86-5.47284E-02-2.73893E-02 4.49972E+00
 -1        87-6.28811E-02-6.28811E-02 4.30095E+00
 -1        88-2.73872E-02 1.06271E-12 4.50394E+00
 -1        89-2.73893E-02-5.47284E-02 4.49972E+00
 -1        90-2.32436E-12 9.80438E-13 4.30901E+00
 -1        91-2.48690E-12-2.73872E-02 4.50394E+00
 -1        92-2.37499E-12-6.28730E-02 4.30498E+00
 -1        93-3.72549E-02 6.27942E-13 4.80729E+00
 -1        94-3.72597E-02-3.72597E-02 4.80279E+00
 -1        95-1.48015E-12 6.17728E-13 4.81179E+00
 -1        96-1.50924E-12-3.72549E-02 4.80729E+00
 -1        97-4.60606E-02 9.51239E-13 4.66857E+00
 -1        98-3.72596E-02-1.86466E-02 4.80617E+00
 -1        99-4.60664E-02-4.60664E-02 4.66419E+00
 -1       100-1.86452E-02 6.03961E-13 4.81067E+00
 -1       101-1.86466E-02-3.72596E-02 4.80617E+00
 -1       102-2.18714E-12 9.34364E-13 4.67294E+00
 -1       103-1.48193E-12-1.86452E-02 4.81067E+00
 -1       104-2.22578E-12-4.60606E-02 4.66857E+00
 -1       105-1.88622E-02-3.99680E-13 4.99430E+00
 -1       106-1.88647E-02-1.88647E-02 4.98963E+00
 -1       107 8.76021E-13-3.82805E-13 4.99897E+00
 -1       108 8.88845E-13-1.88622E-02 4.99430E+00
 -1       109-2.81025E-02 1.55154E-13 4.91610E+00
 -1       110-1.88644E-02-9.44086E-03 4.99313E+00
 -1       111-2.81059E-02-2.81059E-02 4.91150E+00
 -1       112-9.44002E-03-3.56382E-13 4.99781E+00
 -1       113-9.44086E-03-1.88644E-02 4.99313E+00
 -1       114-4.27214E-13 1.73639E-13 4.92071E+00
 -1       115 8.82072E-13-9.44002E-03 4.99781E+00
 -1       116-4.24660E-13-2.81025E-02 4.91610E+00
 -1       117-7.17124E-06-1.56231E-12 5.05716E+00
 -1       118-9.50876E-06-9.50877E-06 5.05243E+00
 -1       119 3.66729E-12-1.55831E-12 5.06189E+00
 -1       120 3.68416E-12-7.17125E-06 5.05716E+00
 -1       121-9.44516E-03-9.92095E-13 5.04143E+00
 -1       122-8.72384E-06-4.40283E-06 5.05598E+00
 -1       123-9.44658E-03-9.44658E-03 5.03671E+00
 -1       124-3.60641E-06-1.58362E-12 5.06071E+00
 -1       125-4.40283E-06-8.72385E-06 5.05598E+00
 -1       126 2.26441E-12-9.50795E-13 5.04615E+00
 -1       127 3.67262E-12-3.60641E-06 5.06071E+00
 -1       128 2.28173E-12-9.44516E-03 5.04143E+00
 -1       129 0.00000E+00 0.00000E+00 0.00000E+00
 -1       130 0.00000E+00 0.00000E+00 0.00000E+00
 -1       131 1.17462E-01-4.33209E-13 7.60941E-01
 -1       132 1.13728E-01-1.13728E-01 7.56804E-01
 -1       133 0.00000E+00 0.00000E+00 0.00000E+00
 -1       134 0.00000E+00 0.00000E+00 0.00000E+00
 -1       135 5.87254E-02-4.33875E-13 7.61338E-01
 -1       136 5.72392E-02-1.15363E-01 7.57064E-01
 -1       137 0.00000E+00 0.00000E+00 0.00000E+00
 -1       138 1.18177E-01-1.41331E-13 3.56734E-01
 -1       139 1.15363E-01-5.72392E-02 7.57064E-01
 -1       140 1.18014E-01-1.18014E-01 3.77030E-01
 -1       141 1.14576E-01-1.04716E-12 1.53349E+00
 -1       142 1.14035E-01-1.14035E-01 1.53152E+00
 -1       143 5.72853E-02-1.02807E-12 1.53495E+00
 -1       144 5.69083E-02-1.14416E-01 1.53326E+00
 -1       145 1.16432E-01-7.58948E-13 1.14997E+00
 -1       146 1.14416E-01-5.69083E-02 1.53326E+00
 -1       147 1.16943E-01-1.16943E-01 1.14884E+00
 -1       148 1.07259E-01-1.26943E-12 2.27231E+00
 -1       149 1.07199E-01-1.07199E-01 2.27022E+00
 -1       150 5.36917E-02-1.23823E-12 2.27377E+00
 -1       151 5.36885E-02-1.07198E-01 2.27170E+00
 -1       152 1.10842E-01-1.22835E-12 1.90872E+00
 -1       153 1.07198E-01-5.36885E-02 2.27170E+00
 -1       154 1.10909E-01-1.10909E-01 1.90706E+00
 -1       155 9.73959E-02-8.68278E-13 2.95403E+00
 -1       156 9.74106E-02-9.74106E-02 2.95124E+00
 -1       157 4.87421E-02-8.47739E-13 2.95613E+00
 -1       158 4.87379E-02-9.74206E-02 2.95335E+00
 -1       159 1.02492E-01-1.13937E-12 2.62132E+00
 -1       160 9.74206E-02-4.87379E-02 2.95335E+00
 -1       161 1.02502E-01-1.02502E-01 2.61885E+00
 -1       162 8.51775E-02-3.64153E-14 3.56250E+00
 -1       163 8.51859E-02-8.51859E-02 3.55917E+00
 -1       164 4.26298E-02-3.01981E-14 3.56500E+00
 -1       165 4.26344E-02-8.51830E-02 3.56167E+00
 -1       166 9.14245E-02-4.78728E-13 3.26844E+00
 -1       167 8.51830E-02-4.26344E-02 3.56167E+00
 -1       168 9.14380E-02-9.14380E-02 3.26538E+00
 -1       169 7.08277E-02 7.62501E-13 4.08238E+00
 -1       170 7.08372E-02-7.08372E-02 4.07855E+00
 -1       171 3.54475E-02 7.58504E-13 4.08524E+00
 -1       172 3.54496E-02-7.08376E-02 4.08142E+00
 -1       173 7.81257E-02 3.94795E-13 3.83438E+00
 -1       174 7.08376E-02-3.54496E-02 4.08142E+00
 -1       175 7.81349E-02-7.81349E-02 3.83078E+00
 -1       176 5.47223E-02 1.09401E-12 4.50078E+00
 -1       177 5.47289E-02-5.47289E-02 4.49656E+00
 -1       178 2.73872E-02 1.07114E-12 4.50394E+00
 -1       179 2.73893E-02-5.47284E-02 4.49972E+00
 -1       180 6.28730E-02 1.01530E-12 4.30498E+00
 -1       181 5.47284E-02-2.73893E-02 4.49972E+00
 -1       182 6.28811E-02-6.28811E-02 4.30095E+00
 -1       183 3.72549E-02 6.85230E-13 4.80729E+00
 -1       184 3.72597E-02-3.72597E-02 4.80279E+00
 -1       185 1.86452E-02 6.31939E-13 4.81067E+00
 -1       186 1.86466E-02-3.72596E-02 4.80617E+00
 -1       187 4.60606E-02 9.86766E-13 4.66857E+00
 -1       188 3.72596E-02-1.86466E-02 4.80617E+00
 -1       189 4.60664E-02-4.60664E-02 4.66419E+00
 -1       190 1.88622E-02-3.28293E-13 4.99430E+00
 -1       191 1.88647E-02-1.88647E-02 4.98963E+00
 -1       192 9.44002E-03-3.64986E-13 4.99781E+00
 -1       193 9.44086E-03-1.88644E-02 4.99313E+00
 -1       194 2.81025E-02 2.29594E-13 4.91610E+00
 -1       195 1.88644E-02-9.44086E-03 4.99313E+00
 -1       196 2.81059E-02-2.81059E-02 4.91150E+00
 -1       197 7.17125E-06-1.54410E-12 5.05716E+00
 -1       198 9.50877E-06-9.50877E-06 5.05243E+00
 -1       199 3.60642E-06-1.54010E-12 5.06071E+00
 -1       200 4.40283E-06-8.72385E-06 5.05598E+00
 -1       201 9.44516E-03-9.55236E-13 5.04143E+00
 -1       202 8.72385E-06-4.40283E-06 5.05598E+00
 -1       203 9.44658E-03-9.44658E-03 5.03671E+00
 -1       204 0.00000E+00 0.00000E+00 0.00000E+00
 -1       205-1.13728E-01 1.13728E-01 7.56804E-01
 -1       206 0.00000E+00 0.00000E+00 0.00000E+00
 -1       207 1.01652E-12 1.17462E-01 7.60941E-01
 -1       208 0.00000E+00 0.00000E+00 0.00000E+00
 -1       209-1.18014E-01 1.18014E-01 3.77030E-01
 -1       210-1.15363E-01 5.72392E-02 7.57064E-01
 -1       211 0.00000E+00 0.00000E+00 0.00000E+00
 -1       212-5.72392E-02 1.15363E-01 7.57064E-01
 -1       213 0.00000E+00 0.00000E+00 0.00000E+00
 -1       214 3.28404E-13 1.18177E-01 3.56734E-01
 -1       215 1.02895E-12 5.87254E-02 7.61338E-01
 -1       216-1.14035E-01 1.14035E-01 1.53152E+00
 -1       217 2.48823E-12 1.14576E-01 1.53349E+00
 -1       218-1.16943E-01 1.16943E-01 1.14884E+00
 -1       219-1.14416E-01 5.69083E-02 1.53326E+00
 -1       220-5.69083E-02 1.14416E-01 1.53326E+00
 -1       221 1.79678E-12 1.16432E-01 1.14997E+00
 -1       222 2.45937E-12 5.72853E-02 1.53495E+00
 -1       223-1.07199E-01 1.07199E-01 2.27022E+00
 -1       224 3.01936E-12 1.07259E-01 2.27231E+00
 -1       225-1.10909E-01 1.10909E-01 1.90706E+00
 -1       226-1.07198E-01 5.36885E-02 2.27170E+00
 -1       227-5.36885E-02 1.07198E-01 2.27170E+00
 -1       228 2.92388E-12 1.10842E-01 1.90872E+00
 -1       229 2.96785E-12 5.36917E-02 2.27377E+00
 -1       230-9.74106E-02 9.74106E-02 2.95124E+00
 -1       231 2.07123E-12 9.73959E-02 2.95403E+00
 -1       232-1.02502E-01 1.02502E-01 2.61885E+00
 -1       233-9.74206E-02 4.87379E-02 2.95335E+00
 -1       234-4.87379E-02 9.74206E-02 2.95335E+00
 -1       235 2.72227E-12 1.02492E-01 2.62132E+00
 -1       236 2.03126E-12 4.87421E-02 2.95613E+00
 -1       237-8.51859E-02 8.51859E-02 3.55917E+00
 -1       238 8.92619E-14 8.51775E-02 3.56250E+00
 -1       239-9.14380E-02 9.14380E-02 3.26538E+00
 -1       240-8.51830E-02 4.26344E-02 3.56167E+00
 -1       241-4.26344E-02 8.51830E-02 3.56167E+00
 -1       242 1.14109E-12 9.14245E-02 3.26844E+00
 -1       243 8.34888E-14 4.26298E-02 3.56500E+00
 -1       244-7.08372E-02 7.08372E-02 4.07855E+00
 -1       245-1.81122E-12 7.08277E-02 4.08238E+00
 -1       246-7.81349E-02 7.81349E-02 3.83078E+00
 -1       247-7.08376E-02 3.54496E-02 4.08142E+00
 -1       248-3.54496E-02 7.08376E-02 4.08142E+00
 -1       249-9.37139E-13 7.81257E-02 3.83438E+00
 -1       250-1.78824E-12 3.54475E-02 4.08524E+00
 -1       251-5.47289E-02 5.47289E-02 4.49656E+00
 -1       252-2.54374E-12 5.47223E-02 4.50078E+00
 -1       253-6.28811E-02 6.28811E-02 4.30095E+00
 -1       254-5.47284E-02 2.73893E-02 4.49972E+00
 -1       255-2.73893E-02 5.47284E-02 4.49972E+00
 -1       256-2.37499E-12 6.28730E-02 4.30498E+00
 -1       257-2.48734E-12 2.73872E-02 4.50394E+00
 -1       258-3.72597E-02 3.72597E-02 4.80279E+00
 -1       259-1.55342E-12 3.72549E-02 4.80729E+00
 -1       260-4.60664E-02 4.60664E-02 4.66419E+00
 -1       261-3.72596E-02 1.86466E-02 4.80617E+00
 -1       262-1.86466E-02 3.72596E-02 4.80617E+00
 -1       263-2.25864E-12 4.60606E-02 4.66857E+00
 -1       264-1.50635E-12 1.86452E-02 4.81067E+00
 -1       265-1.88647E-02 1.88647E-02 4.98963E+00
 -1       266 8.19345E-13 1.88622E-02 4.99430E+00
 -1       267-2.81059E-02 2.81059E-02 4.91150E+00
 -1       268-1.88644E-02 9.44086E-03 4.99313E+00
 -1       269-9.44086E-03 1.88644E-02 4.99313E+00
 -1       270-4.91163E-13 2.81025E-02 4.91610E+00
 -1       271 8.48710E-13 9.44002E-03 4.99781E+00
 -1       272-9.50876E-06 9.50877E-06 5.05243E+00
 -1       273 3.63531E-12 7.17124E-06 5.05716E+00
 -1       274-9.44658E-03 9.44658E-03 5.03671E+00
 -1       275-8.72384E-06 4.40283E-06 5.05598E+00
 -1       276-4.40283E-06 8.72384E-06 5.05598E+00
 -1       277 2.24509E-12 9.44516E-03 5.04143E+00
 -1       278 3.65841E-12 3.60641E-06 5.06071E+00
 -1       279 0.00000E+00 0.00000E+00 0.00000E+00
 -1       280 1.13728E-01 1.13728E-01 7.56804E-01
 -1       281 0.00000E+00 0.00000E+00 0.00000E+00
 -1       282 5.72392E-02 1.15363E-01 7.57064E-01
 -1       283 0.00000E+00 0.00000E+00 0.00000E+00
 -1       284 1.18014E-01 1.18014E-01 3.77030E-01
 -1       285 1.15363E-01 5.72392E-02 7.57064E-01
 -1       286 1.14035E-01 1.14035E-01 1.53152E+00
 -1       287 5.69083E-02 1.14416E-01 1.53326E+00
 -1       288 1.16943E-01 1.16943E-01 1.14884E+00
 -1       289 1.14416E-01 5.69083E-02 1.53326E+00
 -1       290 1.07199E-01 1.07199E-01 2.27022E+00
 -1       291 5.36885E-02 1.07198E-01 2.27170E+00
 -1       292 1.10909E-01 1.10909E-01 1.90706E+00
 -1       293 1.07198E-01 5.36885E-02 2.27170E+00
 -1       294 9.74106E-02 9.74106E-02 2.95124E+00
 -1       295 4.87379E-02 9.74206E-02 2.95335E+00
 -1       296 1.02502E-01 1.02502E-01 2.61885E+00
 -1       297 9.74206E-02 4.87379E-02 2.95335E+00
 -1       298 8.51859E-02 8.51859E-02 3.55917E+00
 -1       299 4.26344E-02 8.51830E-02 3.56167E+00
 -1       300 9.14380E-02 9.14380E-02 3.26538E+00
 -1       301 8.51830E-02 4.26344E-02 3.56167E+00
 -1       302 7.08372E-02 7.08372E-02 4.07855E+00
 -1       303 3.54496E-02 7.08376E-02 4.08142E+00
 -1       304 7.81349E-02 7.81349E-02 3.83078E+00
 -1       305 7.08376E-02 3.54496E-02 4.08142E+00
 -1       306 5.47289E-02 5.47289E-02 4.49656E+00
 -1       307 2.73893E-02 5.47284E-02 4.49972E+00
 -1       308 6.28811E-02 6.28811E-02 4.30095E+00
 -1       309 5.47284E-02 2.73893E-02 4.49972E+00
 -1       310 3.72597E-02 3.72597E-02 4.80279E+00
 -1       311 1.86466E-02 3.72596E-02 4.80617E+00
 -1       312 4.60664E-02 4.60664E-02 4.66419E+00
 -1       313 3.72596E-02 1.86466E-02 4.80617E+00
 -1       314 1.88647E-02 1.88647E-02 4.98963E+00
 -1       315 9.44086E-03 1.88644E-02 4.99313E+00
 -1       316 2.81059E-02 2.81059E-02 4.91150E+00
 -1       317 1.88644E-02 9.44086E-03 4.99313E+00
 -1       318 9.50877E-06 9.50877E-06 5.05243E+00
 -1       319 4.40283E-06 8.72384E-06 5.05598E+00
 -1       320 9.44658E-03 9.44658E-03 5.03671E+00
 -1       321 8.72385E-06 4.40283E-06 5.05598E+00
 -3
    1PSTEP                        22           1           1          
    1PGM                1.000000E+00                                  
    1PGK                6.661483E+09                                  
    1PHID                         -1                                  
    1PSUBC                         0                                  
    1PMODE                         6                                  
  100CL  106 12989.89356         321                     2    6MODAL      1
 -4  STRESS      6    1
 -5  SXX         1    4    1    1
 -5  SYY         1    4    2    2
 -5  SZZ         1    4    3    3
 -5  SXY         1    4    1    2
 -5  SYZ         1    4    2    3
 -5  SZX         1    4    3    1
 -1         1 9.10246E+12 9.10246E+12 2.12385E+13-7.28641E+05-2.89420E+12-2.89420E+12
 -1         2 8.06873E+12 8.06873E+12 1.88265E+13 9.53197E-04-9.62710E-01-2.86928E+12
 -1         3 4.96742E+11 5.69649E+11 1.75335E+13 2.97913E-01-2.65271E+00 5.35862E+11
 -1         4 3.59502E+11 3.59502E+11 1.65503E+13 9.05718E+10 5.27896E+11 5.27896E+11
 -1         5 8.06873E+12 8.06873E+12 1.88265E+13-7.28369E-04-2.86928E+12 2.25389E+00
 -1         6 7.00529E+12 7.00529E+12 1.63451E+13 2.62439E-04-1.48182E+00 3.35570E+00
 -1         7 9.78189E+11 9.78189E+11 1.87234E+13-1.66311E-01-2.24919E+00 5.43113E+00
 -1         8 5.69649E+11 4.96742E+11 1.75335E+13-2.41463E-01 5.35862E+11 6.38998E+00
 -1         9 8.56382E+12 8.56382E+12 1.99829E+13 2.81226E+05-1.45014E+12-2.87989E+12
 -1        10-3.40775E+11-3.59394E+11 1.57705E+13-1.68437E-01-1.38745E+00-5.54150E+11
 -1        11 4.45933E+11 4.74873E+11 1.70597E+13 7.68086E+10 1.72520E+11 5.31080E+11
 -1        12-3.02343E+11-3.02343E+11 1.57123E+13-9.78621E+09-5.32279E+11-5.32279E+11
 -1        13 8.56382E+12 8.56382E+12 1.99829E+13 2.81226E+05-2.87989E+12-1.45014E+12
 -1        14 7.51550E+12 7.51550E+12 1.75368E+13-2.25842E-04-1.26701E+00-1.43461E+12
 -1        15 7.47836E+11 7.91804E+11 1.81464E+13-1.52779E-03-2.41523E+00 1.74882E+11
 -1        16 4.74873E+11 4.45933E+11 1.70597E+13 7.68086E+10 5.31080E+11 1.72520E+11
 -1        17 7.51550E+12 7.51550E+12 1.75368E+13 3.81887E-04-1.43461E+12 2.86465E+00
 -1        18-2.72046E+11-2.72046E+11 1.59091E+13-9.84499E-02-1.50496E+00 3.50488E+00
 -1        19 7.91804E+11 7.47836E+11 1.81464E+13-7.81488E-02 1.74882E+11 5.77213E+00
 -1        20-3.59394E+11-3.40775E+11 1.57705E+13 6.37869E-01-5.54150E+11 3.38736E+00
 -1        21-1.39234E+09 3.05496E+10 1.60064E+13-1.09125E-01-1.34969E+00-2.29674E+10
 -1        22-4.13548E+10-4.13548E+10 1.59288E+13 3.17369E+10-9.66361E+09-9.66361E+09
 -1        23-2.41019E+08-2.41019E+08 1.60379E+13-1.25397E-01-1.29883E+00 3.11515E+00
 -1        24 3.05496E+10-1.39234E+09 1.60064E+13 1.94739E-02-2.29674E+10 3.58434E+00
 -1        25-7.06354E+10-1.03802E+11 1.61720E+13 7.57327E-02-1.52375E+00 3.24911E+10
 -1        26-1.40219E+10 5.50995E+09 1.59980E+13 1.83978E+10 4.87755E+09-1.73256E+10
 -1        27-1.65192E+10-1.65192E+10 1.62599E+13-2.44370E+10 1.33436E+10 1.33436E+10
 -1        28 9.99515E+09 2.24053E+10 1.60524E+13-7.86079E-02-1.29977E+00 1.93091E+09
 -1        29 5.50995E+09-1.40219E+10 1.59980E+13 1.83978E+10-1.73256E+10 4.87755E+09
 -1        30-7.92034E+10-7.92034E+10 1.61141E+13-1.59256E-01-1.32730E+00 3.16719E+00
 -1        31 2.24053E+10 9.99515E+09 1.60524E+13-1.67030E-02 1.93091E+09 3.24839E+00
 -1        32-1.03802E+11-7.06354E+10 1.61720E+13-1.49322E-01 3.24911E+10 3.74165E+00
 -1        33 5.37998E+09-1.22478E+10 1.50109E+13 2.00284E-01-1.48406E-01 4.37267E+09
 -1        34 1.72805E+10 1.72805E+10 1.49977E+13-2.07040E+09 6.82687E+09 6.82687E+09
 -1        35-1.52050E+10-1.52050E+10 1.50150E+13 9.45023E-04-9.09683E-02 2.03735E-01
 -1        36-1.22478E+10 5.37998E+09 1.50109E+13-2.70006E-01 4.37267E+09 2.78322E-01
 -1        37 4.60455E+09-1.25089E+08 1.55174E+13 5.25627E-02-5.28586E-01-9.72905E+09
 -1        38 1.28284E+10 3.01372E+09 1.50058E+13 1.76515E+07-9.42996E+07 5.90325E+09
 -1        39-1.16579E+10-1.16579E+10 1.55064E+13 2.94671E+09-1.01058E+10-1.01058E+10
 -1        40-4.49413E+09-1.23073E+10 1.50143E+13 1.12299E-01-1.95690E-01-2.92409E+08
 -1        41 3.01372E+09 1.28284E+10 1.50058E+13 1.76515E+07 5.90325E+09-9.42996E+07
 -1        42-3.20615E+09-3.20615E+09 1.55278E+13-6.24270E-02-5.16646E-01 1.20340E+00
 -1        43-1.23073E+10-4.49413E+09 1.50143E+13-1.39273E-01-2.92409E+08 2.09672E-01
 -1        44-1.25089E+08 4.60455E+09 1.55174E+13-1.39076E-01-9.72905E+09 1.40632E+00
 -1        45 4.42074E+09-5.97364E+09 1.36309E+13 9.72229E-02 1.10834E+00-1.30104E+09
 -1        46 7.57831E+08 7.57831E+08 1.36204E+13 1.77245E+09-1.42580E+09-1.42580E+09
 -1        47-9.60806E+09-9.60806E+09 1.36372E+13 1.84240E-03 9.74841E-01-2.79015E+00
 -1        48-5.97364E+09 4.42074E+09 1.36309E+13 4.33866E-01-1.30104E+09-3.09710E+00
 -1        49-1.29978E+10-2.80520E+10 1.43045E+13 2.53604E-01 3.55232E-01 2.68604E+09
 -1        50 4.00477E+09-6.30902E+08 1.36320E+13 3.92712E+08 1.03410E+08-1.47776E+09
 -1        51-8.39778E+09-8.39778E+09 1.42973E+13-1.19213E+09 1.94535E+09 1.94535E+09
 -1        52-6.41314E+08-6.40002E+09 1.36404E+13-8.79228E-02 1.05524E+00 1.64620E+08
 -1        53-6.30902E+08 4.00477E+09 1.36320E+13 3.92712E+08-1.47776E+09 1.03410E+08
 -1        54-2.72075E+10-2.72075E+10 1.43159E+13 2.55920E-02 3.11608E-01-9.87822E-01
 -1        55-6.40002E+09-6.41314E+08 1.36404E+13 8.80187E-02 1.64620E+08-2.85080E+00
 -1        56-2.80520E+10-1.29978E+10 1.43045E+13 1.07936E-01 2.68604E+09-1.18682E+00
 -1        57 3.30135E+09-7.63104E+09 1.19200E+13-1.70268E-01 1.64671E+00 1.21531E+08
 -1        58 4.14946E+09 4.14946E+09 1.19120E+13-1.03292E+08 2.12103E+08 2.12103E+08
 -1        59-8.57069E+09-8.57069E+09 1.19274E+13-2.50622E-01 1.30557E+00-3.76636E+00
 -1        60-7.63104E+09 3.30135E+09 1.19200E+13-2.18570E-01 1.21531E+08-4.44313E+00
 -1        61-6.69792E+09-1.74260E+10 1.27713E+13-4.66387E-02 1.06995E+00-6.59806E+08
 -1        62 5.11869E+09-3.05427E+08 1.19205E+13-1.67239E+08 4.92587E+06 2.10582E+08
 -1        63-8.14775E+09-8.14775E+09 1.27622E+13 7.69838E+08-5.17206E+08-5.17206E+08
 -1        64-1.19449E+09-6.70276E+09 1.19282E+13-2.11525E-01 1.41831E+00-2.40518E+06
 -1        65-3.05427E+08 5.11869E+09 1.19205E+13-1.67239E+08 2.10582E+08 4.92586E+06
 -1        66-1.93724E+10-1.93724E+10 1.27787E+13-3.71753E-03 7.75693E-01-2.44699E+00
 -1        67-6.70276E+09-1.19449E+09 1.19282E+13-2.38758E-01-2.40517E+06-3.98636E+00
 -1        68-1.74260E+10-6.69792E+09 1.27713E+13 2.78066E-01-6.59806E+08-2.80081E+00
 -1        69 2.93892E+09-5.72867E+09 9.91216E+12-5.27411E-01 1.10654E+00-2.18392E+08
 -1        70 2.55357E+09 2.55357E+09 9.90538E+12 3.58899E+08-2.33478E+08-2.33478E+08
 -1        71-6.96231E+09-6.96231E+09 9.91809E+12 1.72867E-01 9.93164E-01-2.53862E+00
 -1        72-5.72867E+09 2.93892E+09 9.91216E+12 9.94177E-02-2.18392E+08-2.97967E+00
 -1        73-6.95838E+09-1.67673E+10 1.09108E+13-3.25318E-01 1.09350E+00 1.39622E+08
 -1        74 3.81944E+09-3.48307E+08 9.91272E+12-2.08264E+07 3.06671E+07-2.28969E+08
 -1        75-6.67104E+09-6.67104E+09 1.09036E+13 1.18886E+08 1.03912E+08 1.03912E+08
 -1        76-7.74752E+08-5.27459E+09 9.91907E+12 1.83345E-01 1.13078E+00 3.20616E+07
 -1        77-3.48307E+08 3.81944E+09 9.91272E+12-2.08264E+07-2.28969E+08 3.06670E+07
 -1        78-1.78084E+10-1.78084E+10 1.09175E+13-9.35753E-02 7.94447E-01-2.15481E+00
 -1        79-5.27459E+09-7.74752E+08 9.91907E+12 2.01753E-01 3.20616E+07-2.62861E+00
 -1        80-1.67673E+10-6.95838E+09 1.09108E+13 7.29753E-02 1.39622E+08-2.99385E+00
 -1        81 2.19253E+09-4.60726E+09 7.65812E+12-1.25275E-01 1.73281E-01-1.65571E+08
 -1        82 2.19915E+09 2.19915E+09 7.65295E+12 1.51972E+08-1.48256E+08-1.48256E+08
 -1        83-5.41731E+09-5.41731E+09 7.66278E+12-1.52102E-01 4.59560E-01-4.93783E-01
 -1        84-4.60726E+09 2.19253E+09 7.65812E+12-7.64010E-01-1.65571E+08-3.29510E-01
 -1        85-5.27554E+09-1.30115E+10 8.78136E+12-3.35227E-01 4.56131E-01-6.48794E+07
 -1        86 3.05611E+09-2.52163E+08 7.65853E+12-4.97016E+07 2.83945E+07-1.44827E+08
 -1        87-5.47101E+09-5.47101E+09 8.77537E+12 2.53155E+08-4.31653E+07-4.31653E+07
 -1        88-6.59813E+08-4.15134E+09 7.66345E+12 1.40529E-01 1.64814E-01 2.51605E+07
 -1        89-2.52163E+08 3.05611E+09 7.65853E+12-4.97016E+07-1.44827E+08 2.83945E+07
 -1        90-1.40401E+10-1.40401E+10 8.78663E+12 5.21301E-02 4.38860E-01-1.15266E+00
 -1        91-4.15134E+09-6.59813E+08 7.66345E+12-3.70794E-01 2.51605E+07-4.25492E-01
 -1        92-1.30115E+10-5.27554E+09 8.78136E+12 5.01931E-02-6.48794E+07-1.17245E+00
 -1        93 1.52103E+09-3.09196E+09 5.21369E+12 2.22485E-01-1.65080E+00-1.89921E+08
 -1        94 1.44198E+09 1.44198E+09 5.21015E+12 1.37768E+08-1.79264E+08-1.79264E+08
 -1        95-3.68470E+09-3.68470E+09 5.21684E+12-8.73651E-03-8.48123E-01 2.08296E+00
 -1        96-3.09196E+09 1.52103E+09 5.21369E+12 3.50982E-01-1.89921E+08 2.70656E+00
 -1        97-3.94196E+09-9.64977E+09 6.43304E+12 2.33501E-05-6.04000E-01-1.46817E+07
 -1        98 2.05707E+09-1.76356E+08 5.21397E+12-2.58177E+07 3.17119E+07-1.75680E+08
 -1        99-3.97263E+09-3.97263E+09 6.42870E+12 1.43440E+08-8.33661E+06-8.33661E+06
 -1       100-4.33602E+08-2.81316E+09 5.21731E+12-2.03839E-01-1.06873E+00 2.90798E+07
 -1       101-1.76356E+08 2.05707E+09 5.21397E+12-2.58177E+07-1.75680E+08 3.17119E+07
 -1       102-1.03537E+10-1.03537E+10 6.43693E+12 3.83102E-03-2.32982E-01 7.28010E-01
 -1       103-2.81316E+09-4.33602E+08 5.21731E+12 6.42523E-02 2.90798E+07 2.23701E+00
 -1       104-9.64977E+09-3.94196E+09 6.43304E+12 5.90311E-02-1.46817E+07 9.67828E-01
 -1       105 7.08775E+08-1.62154E+09 2.63960E+12-2.38617E+00-1.14434E+00-1.72437E+08
 -1       106 7.00942E+08 7.00942E+08 2.63784E+12 4.22407E+07-1.59754E+08-1.59754E+08
 -1       107-1.89771E+09-1.89771E+09 2.64117E+12 1.37185E+00-7.51082E-01 2.61888E+00
 -1       108-1.62154E+09 7.08775E+08 2.63960E+12-3.21950E-01-1.72437E+08 2.70870E+00
 -1       109-2.40234E+09-5.86790E+09 3.92493E+12-9.18255E-01-1.08246E+00-3.87306E+07
 -1       110 9.95771E+08-1.38374E+08 2.63974E+12-2.34654E+07 5.12348E+07-1.56973E+08
 -1       111-2.44443E+09-2.44443E+09 3.92227E+12 9.60932E+07-2.72668E+07-2.72668E+07
 -1       112-2.71048E+08-1.46722E+09 2.64140E+12-3.26599E-02-1.02612E+00 4.67192E+07
 -1       113-1.38374E+08 9.95771E+08 2.63974E+12-2.34654E+07-1.56973E+08 5.12348E+07
 -1       114-6.30322E+09-6.30322E+09 3.92731E+12 6.77544E-01-6.57876E-01 1.79180E+00
 -1       115-1.46722E+09-2.71048E+08 2.64140E+12 5.56831E-02 4.67192E+07 2.52986E+00
 -1       116-5.86790E+09-2.40234E+09 3.92493E+12 1.97912E-01-3.87306E+07 2.25018E+00
 -1       117 4.34176E+08 4.01405E+08 1.97964E+09 1.37778E+00 2.45448E-02-2.40310E+08
 -1       118 4.60362E+08 4.60362E+08 2.54373E+09-2.59149E+07-2.34864E+08-2.34864E+08
 -1       119 1.87059E+08 1.87059E+08 1.39353E+09-1.19420E+00-5.08853E-01 4.49887E-01
 -1       120 4.01405E+08 4.34176E+08 1.97964E+09 6.95493E-01-2.40310E+08 5.54367E-01
 -1       121-7.06403E+08-1.85536E+09 1.31939E+12-1.14087E+00-3.71426E-01-1.72782E+07
 -1       122 5.82932E+08 5.78948E+08 2.73854E+09-3.82253E+07 1.28262E+07-2.35576E+08
 -1       123-7.23556E+08-7.23556E+08 1.31862E+12 4.07548E+07-1.26254E+07-1.26254E+07
 -1       124 4.61819E+08 4.33032E+08 2.17076E+09-3.54266E-02-6.28892E-01 2.89892E+06
 -1       125 5.78948E+08 5.82932E+08 2.73854E+09-3.82253E+07-2.35576E+08 1.28262E+07
 -1       126-2.07357E+09-2.07357E+09 1.32005E+12-2.98048E-02-2.36712E-01 8.45595E-01
 -1       127 4.33032E+08 4.61819E+08 2.17076E+09-8.27304E-02 2.89892E+06 3.95307E-01
 -1       128-1.85536E+09-7.06403E+08 1.31939E+12 2.63155E-01-1.72782E+07 9.20965E-01
 -1       129 9.10246E+12 9.10246E+12 2.12385E+13 7.28641E+05-2.89420E+12 2.89420E+12
 -1       130 8.06873E+12 8.06873E+12 1.88265E+13 8.85010E-04-1.06818E+00 2.86928E+12
 -1       131 4.96742E+11 5.69649E+11 1.75335E+13-8.35419E-02-2.81796E+00-5.35862E+11
 -1       132 3.59502E+11 3.59502E+11 1.65503E+13-9.05718E+10 5.27896E+11-5.27896E+11
 -1       133 8.56382E+12 8.56382E+12 1.99829E+13-2.81226E+05-2.87989E+12 1.45014E+12
 -1       134 7.51550E+12 7.51550E+12 1.75368E+13 3.68595E-04-1.29142E+00 1.43461E+12
 -1       135 7.47836E+11 7.91804E+11 1.81464E+13-6.08149E-02-2.44476E+00-1.74882E+11
 -1       136 4.74873E+11 4.45933E+11 1.70597E+13-7.68086E+10 5.31080E+11-1.72520E+11
 -1       137 8.56382E+12 8.56382E+12 1.99829E+13-2.81226E+05-1.45014E+12 2.87989E+12
 -1       138-3.40775E+11-3.59394E+11 1.57705E+13 2.43683E-01-1.55118E+00 5.54150E+11
 -1       139 4.45933E+11 4.74873E+11 1.70597E+13-7.68086E+10 1.72520E+11-5.31080E+11
 -1       140-3.02343E+11-3.02343E+11 1.57123E+13 9.78621E+09-5.32279E+11 5.32279E+11
 -1       141-1.39234E+09 3.05496E+10 1.60064E+13 4.30012E-02-1.64384E+00 2.29674E+10
 -1       142-4.13548E+10-4.13548E+10 1.59288E+13-3.17369E+10-9.66361E+09 9.66361E+09
 -1       143 9.99515E+09 2.24053E+10 1.60524E+13-6.43381E-02-1.39191E+00-1.93091E+09
 -1       144 5.50995E+09-1.40219E+10 1.59980E+13-1.83978E+10-1.73256E+10-4.87755E+09
 -1       145-7.06354E+10-1.03802E+11 1.61720E+13-7.97081E-03-1.68805E+00-3.24911E+10
 -1       146-1.40219E+10 5.50995E+09 1.59980E+13-1.83978E+10 4.87755E+09 1.73256E+10
 -1       147-1.65192E+10-1.65192E+10 1.62599E+13 2.44370E+10 1.33436E+10-1.33436E+10
 -1       148 5.37998E+09-1.22478E+10 1.50109E+13 3.69411E-01-2.60127E-01-4.37267E+09
 -1       149 1.72805E+10 1.72805E+10 1.49977E+13 2.07040E+09 6.82687E+09-6.82687E+09
 -1       150-4.49413E+09-1.23073E+10 1.50143E+13 1.72848E-01-2.14305E-01 2.92409E+08
 -1       151 3.01372E+09 1.28284E+10 1.50058E+13-1.76515E+07 5.90325E+09 9.42996E+07
 -1       152 4.60455E+09-1.25089E+08 1.55174E+13 1.69344E-01-7.36593E-01 9.72905E+09
 -1       153 1.28284E+10 3.01372E+09 1.50058E+13-1.76515E+07-9.42996E+07-5.90325E+09
 -1       154-1.16579E+10-1.16579E+10 1.55064E+13-2.94671E+09-1.01058E+10 1.01058E+10
 -1       155 4.42074E+09-5.97364E+09 1.36309E+13-2.49012E-01 1.38693E+00 1.30104E+09
 -1       156 7.57831E+08 7.57831E+08 1.36204E+13-1.77245E+09-1.42580E+09 1.42580E+09
 -1       157-6.41314E+08-6.40002E+09 1.36404E+13 5.49167E-02 1.10695E+00-1.64620E+08
 -1       158-6.30902E+08 4.00477E+09 1.36320E+13-3.92712E+08-1.47776E+09-1.03410E+08
 -1       159-1.29978E+10-2.80520E+10 1.43045E+13-5.28790E-02 4.75935E-01-2.68604E+09
 -1       160 4.00477E+09-6.30902E+08 1.36320E+13-3.92712E+08 1.03410E+08 1.47776E+09
 -1       161-8.39778E+09-8.39778E+09 1.42973E+13 1.19213E+09 1.94535E+09-1.94535E+09
 -1       162 3.30135E+09-7.63104E+09 1.19200E+13-3.69981E-01 1.80955E+00-1.21531E+08
 -1       163 4.14946E+09 4.14946E+09 1.19120E+13 1.03292E+08 2.12103E+08-2.12103E+08
 -1       164-1.19449E+09-6.70276E+09 1.19282E+13-3.71248E-01 1.50556E+00 2.40517E+06
 -1       165-3.05427E+08 5.11869E+09 1.19205E+13 1.67239E+08 2.10582E+08-4.92587E+06
 -1       166-6.69792E+09-1.74260E+10 1.27713E+13-1.61031E-01 1.30081E+00 6.59806E+08
 -1       167 5.11869E+09-3.05427E+08 1.19205E+13 1.67239E+08 4.92587E+06-2.10582E+08
 -1       168-8.14775E+09-8.14775E+09 1.27622E+13-7.69838E+08-5.17206E+08 5.17206E+08
 -1       169 2.93892E+09-5.72867E+09 9.91216E+12 2.35005E-01 1.66078E+00 2.18392E+08
 -1       170 2.55357E+09 2.55357E+09 9.90538E+12-3.58899E+08-2.33478E+08 2.33478E+08
 -1       171-7.74752E+08-5.27459E+09 9.91907E+12-8.45692E-02 1.31488E+00-3.20616E+07
 -1       172-3.48307E+08 3.81944E+09 9.91272E+12 2.08264E+07-2.28969E+08-3.06671E+07
 -1       173-6.95838E+09-1.67673E+10 1.09108E+13-2.03771E-01 1.31738E+00-1.39622E+08
 -1       174 3.81944E+09-3.48307E+08 9.91272E+12 2.08264E+07 3.06671E+07 2.28969E+08
 -1       175-6.67104E+09-6.67104E+09 1.09036E+13-1.18886E+08 1.03912E+08-1.03912E+08
 -1       176 2.19253E+09-4.60726E+09 7.65812E+12 2.54871E-01 8.43449E-01 1.65571E+08
 -1       177 2.19915E+09 2.19915E+09 7.65295E+12-1.51972E+08-1.48256E+08 1.48256E+08
 -1       178-6.59813E+08-4.15134E+09 7.66345E+12-1.11635E-02 4.80809E-01-2.51605E+07
 -1       179-2.52163E+08 3.05611E+09 7.65853E+12 4.97016E+07-1.44827E+08-2.83945E+07
 -1       180-5.27554E+09-1.30115E+10 8.78136E+12 1.55519E-01 9.81710E-01 6.48794E+07
 -1       181 3.05611E+09-2.52163E+08 7.65853E+12 4.97016E+07 2.83945E+07 1.44827E+08
 -1       182-5.47101E+09-5.47101E+09 8.77537E+12-2.53155E+08-4.31653E+07 4.31653E+07
 -1       183 1.52103E+09-3.09196E+09 5.21369E+12-1.42345E+00-8.36473E-01 1.89921E+08
 -1       184 1.44198E+09 1.44198E+09 5.21015E+12-1.37768E+08-1.79264E+08 1.79264E+08
 -1       185-4.33602E+08-2.81316E+09 5.21731E+12-2.86738E-01-9.71437E-01-2.90798E+07
 -1       186-1.76356E+08 2.05707E+09 5.21397E+12 2.58177E+07-1.75680E+08-3.17119E+07
 -1       187-3.94196E+09-9.64977E+09 6.43304E+12-4.89398E-01 9.56801E-02 1.46817E+07
 -1       188 2.05707E+09-1.76356E+08 5.21397E+12 2.58177E+07 3.17119E+07 1.75680E+08
 -1       189-3.97263E+09-3.97263E+09 6.42870E+12-1.43440E+08-8.33661E+06 8.33661E+06
 -1       190 7.08775E+08-1.62154E+09 2.63960E+12-6.03416E-01-1.66375E+00 1.72437E+08
 -1       191 7.00942E+08 7.00942E+08 2.63784E+12-4.22407E+07-1.59754E+08 1.59754E+08
 -1       192-2.71048E+08-1.46722E+09 2.64140E+12-2.44174E-01-1.06082E+00-4.67192E+07
 -1       193-1.38374E+08 9.95771E+08 2.63974E+12 2.34654E+07-1.56973E+08-5.12348E+07
 -1       194-2.40234E+09-5.86790E+09 3.92493E+12-9.73732E-01-9.01974E-01 3.87306E+07
 -1       195 9.95771E+08-1.38374E+08 2.63974E+12 2.34654E+07 5.12348E+07 1.56973E+08
 -1       196-2.44443E+09-2.44443E+09 3.92227E+12-9.60932E+07-2.72668E+07 2.72668E+07
 -1       197 4.34176E+08 4.01405E+08 1.97964E+09 7.70879E-01 1.79646E-01 2.40310E+08
 -1       198 4.60362E+08 4.60362E+08 2.54373E+09 2.59149E+07-2.34864E+08 2.34864E+08
 -1       199 4.61819E+08 4.33032E+08 2.17076E+09 8.99075E-02-4.93253E-03-2.89892E+06
 -1       200 5.78948E+08 5.82932E+08 2.73854E+09 3.82253E+07-2.35576E+08-1.28262E+07
 -1       201-7.06403E+08-1.85536E+09 1.31939E+12 5.35458E-01-7.63666E-01 1.72782E+07
 -1       202 5.82932E+08 5.78948E+08 2.73854E+09 3.82253E+07 1.28262E+07 2.35576E+08
 -1       203-7.23556E+08-7.23556E+08 1.31862E+12-4.07548E+07-1.26254E+07 1.26254E+07
 -1       204 9.10246E+12 9.10246E+12 2.12385E+13 7.28641E+05 2.89420E+12-2.89420E+12
 -1       205 3.59502E+11 3.59502E+11 1.65503E+13-9.05718E+10-5.27896E+11 5.27896E+11
 -1       206 8.06873E+12 8.06873E+12 1.88265E+13 4.78268E-04 2.86928E+12 2.39986E+00
 -1       207 5.69649E+11 4.96742E+11 1.75335E+13 4.13620E-01-5.35862E+11 6.67400E+00
 -1       208 8.56382E+12 8.56382E+12 1.99829E+13-2.81226E+05 1.45014E+12-2.87989E+12
 -1       209-3.02343E+11-3.02343E+11 1.57123E+13 9.78621E+09 5.32279E+11-5.32279E+11
 -1       210 4.45933E+11 4.74873E+11 1.70597E+13-7.68086E+10-1.72520E+11 5.31080E+11
 -1       211 8.56382E+12 8.56382E+12 1.99829E+13-2.81226E+05 2.87989E+12-1.45014E+12
 -1       212 4.74873E+11 4.45933E+11 1.70597E+13-7.68086E+10-5.31080E+11 1.72520E+11
 -1       213 7.51550E+12 7.51550E+12 1.75368E+13 3.53336E-04 1.43461E+12 2.94990E+00
 -1       214-3.59394E+11-3.40775E+11 1.57705E+13-5.64268E-01 5.54150E+11 3.59514E+00
 -1       215 7.91804E+11 7.47836E+11 1.81464E+13-1.47810E-02-1.74882E+11 5.90614E+00
 -1       216-4.13548E+10-4.13548E+10 1.59288E+13-3.17369E+10 9.66361E+09-9.66361E+09
 -1       217 3.05496E+10-1.39234E+09 1.60064E+13 4.54535E-02 2.29674E+10 3.88442E+00
 -1       218-1.65192E+10-1.65192E+10 1.62599E+13 2.44370E+10-1.33436E+10 1.33436E+10
 -1       219-1.40219E+10 5.50995E+09 1.59980E+13-1.83978E+10-4.87755E+09-1.73256E+10
 -1       220 5.50995E+09-1.40219E+10 1.59980E+13-1.83978E+10 1.73256E+10 4.87755E+09
 -1       221-1.03802E+11-7.06354E+10 1.61720E+13 2.59668E-01-3.24911E+10 4.07767E+00
 -1       222 2.24053E+10 9.99515E+09 1.60524E+13-5.43040E-02-1.93091E+09 3.36338E+00
 -1       223 1.72805E+10 1.72805E+10 1.49977E+13 2.07040E+09-6.82687E+09 6.82687E+09
 -1       224-1.22478E+10 5.37998E+09 1.50109E+13-1.28975E-01-4.37267E+09 4.51027E-01
 -1       225-1.16579E+10-1.16579E+10 1.55064E+13-2.94671E+09 1.01058E+10-1.01058E+10
 -1       226 1.28284E+10 3.01372E+09 1.50058E+13-1.76515E+07 9.42996E+07 5.90325E+09
 -1       227 3.01372E+09 1.28284E+10 1.50058E+13-1.76515E+07-5.90325E+09-9.42996E+07
 -1       228-1.25089E+08 4.60455E+09 1.55174E+13-7.32088E-03 9.72905E+09 1.67219E+00
 -1       229-1.23073E+10-4.49413E+09 1.50143E+13-4.10293E-02 2.92409E+08 2.90323E-01
 -1       230 7.57831E+08 7.57831E+08 1.36204E+13-1.77245E+09 1.42580E+09-1.42580E+09
 -1       231-5.97364E+09 4.42074E+09 1.36309E+13-1.38793E-01 1.30104E+09-3.29939E+00
 -1       232-8.39778E+09-8.39778E+09 1.42973E+13 1.19213E+09-1.94535E+09 1.94535E+09
 -1       233 4.00477E+09-6.30902E+08 1.36320E+13-3.92712E+08-1.03410E+08-1.47776E+09
 -1       234-6.30902E+08 4.00477E+09 1.36320E+13-3.92712E+08 1.47776E+09 1.03410E+08
 -1       235-2.80520E+10-1.29978E+10 1.43045E+13-3.00719E-02-2.68604E+09-1.11510E+00
 -1       236-6.40002E+09-6.41314E+08 1.36404E+13-7.34687E-04-1.64620E+08-2.89503E+00
 -1       237 4.14946E+09 4.14946E+09 1.19120E+13 1.03292E+08-2.12103E+08 2.12103E+08
 -1       238-7.63104E+09 3.30135E+09 1.19200E+13 4.70656E-01-1.21531E+08-4.29568E+00
 -1       239-8.14775E+09-8.14775E+09 1.27622E+13-7.69838E+08 5.17206E+08-5.17206E+08
 -1       240 5.11869E+09-3.05427E+08 1.19205E+13 1.67239E+08-4.92586E+06 2.10582E+08
 -1       241-3.05427E+08 5.11869E+09 1.19205E+13 1.67239E+08-2.10582E+08 4.92586E+06
 -1       242-1.74260E+10-6.69792E+09 1.27713E+13 1.50672E-01 6.59806E+08-3.07063E+00
 -1       243-6.70276E+09-1.19449E+09 1.19282E+13 1.28823E-01 2.40518E+06-3.91082E+00
 -1       244 2.55357E+09 2.55357E+09 9.90538E+12-3.58899E+08 2.33478E+08-2.33478E+08
 -1       245-5.72867E+09 2.93892E+09 9.91216E+12-2.52308E-01 2.18392E+08-3.72489E+00
 -1       246-6.67104E+09-6.67104E+09 1.09036E+13-1.18886E+08-1.03912E+08 1.03912E+08
 -1       247 3.81944E+09-3.48307E+08 9.91272E+12 2.08264E+07-3.06670E+07-2.28969E+08
 -1       248-3.48307E+08 3.81944E+09 9.91272E+12 2.08264E+07 2.28969E+08 3.06670E+07
 -1       249-1.67673E+10-6.95838E+09 1.09108E+13-1.94751E-01-1.39622E+08-3.30448E+00
 -1       250-5.27459E+09-7.74752E+08 9.91907E+12 2.30727E-03-3.20616E+07-3.00216E+00
 -1       251 2.19915E+09 2.19915E+09 7.65295E+12-1.51972E+08 1.48256E+08-1.48256E+08
 -1       252-4.60726E+09 2.19253E+09 7.65812E+12 8.40256E-01 1.65571E+08-5.68766E-01
 -1       253-5.47101E+09-5.47101E+09 8.77537E+12-2.53155E+08 4.31653E+07-4.31653E+07
 -1       254 3.05611E+09-2.52163E+08 7.65853E+12 4.97016E+07-2.83945E+07-1.44827E+08
 -1       255-2.52163E+08 3.05611E+09 7.65853E+12 4.97016E+07 1.44827E+08 2.83945E+07
 -1       256-1.30115E+10-5.27554E+09 8.78136E+12 1.86480E-01 6.48794E+07-1.73720E+00
 -1       257-4.15134E+09-6.59813E+08 7.66345E+12 1.20024E-01-2.51605E+07-4.38939E-01
 -1       258 1.44198E+09 1.44198E+09 5.21015E+12-1.37768E+08 1.79264E+08-1.79264E+08
 -1       259-3.09196E+09 1.52103E+09 5.21369E+12-4.99229E-01 1.89921E+08 2.35698E+00
 -1       260-3.97263E+09-3.97263E+09 6.42870E+12-1.43440E+08 8.33661E+06-8.33661E+06
 -1       261 2.05707E+09-1.76356E+08 5.21397E+12 2.58177E+07-3.17119E+07-1.75680E+08
 -1       262-1.76356E+08 2.05707E+09 5.21397E+12 2.58177E+07 1.75680E+08 3.17119E+07
 -1       263-9.64977E+09-3.94196E+09 6.43304E+12-1.54856E-01 1.46817E+07 7.07551E-01
 -1       264-2.81316E+09-4.33602E+08 5.21731E+12-9.68321E-02-2.90798E+07 2.06545E+00
 -1       265 7.00942E+08 7.00942E+08 2.63784E+12-4.22407E+07 1.59754E+08-1.59754E+08
 -1       266-1.62154E+09 7.08775E+08 2.63960E+12 5.55453E-01 1.72437E+08 3.66655E+00
 -1       267-2.44443E+09-2.44443E+09 3.92227E+12-9.60932E+07 2.72668E+07-2.72668E+07
 -1       268 9.95771E+08-1.38374E+08 2.63974E+12 2.34654E+07-5.12348E+07-1.56973E+08
 -1       269-1.38374E+08 9.95771E+08 2.63974E+12 2.34654E+07 1.56973E+08 5.12348E+07
 -1       270-5.86790E+09-2.40234E+09 3.92493E+12-2.61899E-02 3.87306E+07 2.30982E+00
 -1       271-1.46722E+09-2.71048E+08 2.64140E+12 1.13920E+00-4.67192E+07 3.10283E+00
 -1       272 4.60362E+08 4.60362E+08 2.54373E+09 2.59149E+07 2.34864E+08-2.34864E+08
 -1       273 4.01405E+08 4.34176E+08 1.97964E+09-3.58193E-01 2.40310E+08-6.03112E-01
 -1       274-7.23556E+08-7.23556E+08 1.31862E+12-4.07548E+07 1.26254E+07-1.26254E+07
 -1       275 5.82932E+08 5.78948E+08 2.73854E+09 3.82253E+07-1.28262E+07-2.35576E+08
 -1       276 5.78948E+08 5.82932E+08 2.73854E+09 3.82253E+07 2.35576E+08 1.28262E+07
 -1       277-1.85536E+09-7.06403E+08 1.31939E+12 8.64650E-03 1.72782E+07 9.58851E-01
 -1       278 4.33032E+08 4.61819E+08 2.17076E+09-3.51672E-01-2.89892E+06 1.72187E-01
 -1       279 9.10246E+12 9.10246E+12 2.12385E+13-7.28641E+05 2.89420E+12 2.89420E+12
 -1       280 3.59502E+11 3.59502E+11 1.65503E+13 9.05718E+10-5.27896E+11-5.27896E+11
 -1       281 8.56382E+12 8.56382E+12 1.99829E+13 2.81226E+05 2.87989E+12 1.45014E+12
 -1       282 4.74873E+11 4.45933E+11 1.70597E+13 7.68086E+10-5.31080E+11-1.72520E+11
 -1       283 8.56382E+12 8.56382E+12 1.99829E+13 2.81226E+05 1.45014E+12 2.87989E+12
 -1       284-3.02343E+11-3.02343E+11 1.57123E+13-9.78621E+09 5.32279E+11 5.32279E+11
 -1       285 4.45933E+11 4.74873E+11 1.70597E+13 7.68086E+10-1.72520E+11-5.31080E+11
 -1       286-4.13548E+10-4.13548E+10 1.59288E+13 3.17369E+10 9.66361E+09 9.66361E+09
 -1       287 5.50995E+09-1.40219E+10 1.59980E+13 1.83978E+10 1.73256E+10-4.87755E+09
 -1       288-1.65192E+10-1.65192E+10 1.62599E+13-2.44370E+10-1.33436E+10-1.33436E+10
 -1       289-1.40219E+10 5.50995E+09 1.59980E+13 1.83978E+10-4.87755E+09 1.73256E+10
 -1       290 1.72805E+10 1.72805E+10 1.49977E+13-2.07040E+09-6.82687E+09-6.82687E+09
 -1       291 3.01372E+09 1.28284E+10 1.50058E+13 1.76515E+07-5.90325E+09 9.42996E+07
 -1       292-1.16579E+10-1.16579E+10 1.55064E+13 2.94671E+09 1.01058E+10 1.01058E+10
 -1       293 1.28284E+10 3.01372E+09 1.50058E+13 1.76515E+07 9.42996E+07-5.90325E+09
 -1       294 7.57831E+08 7.57831E+08 1.36204E+13 1.77245E+09 1.42580E+09 1.42580E+09
 -1       295-6.30902E+08 4.00477E+09 1.36320E+13 3.92712E+08 1.47776E+09-1.03410E+08
 -1       296-8.39778E+09-8.39778E+09 1.42973E+13-1.19213E+09-1.94535E+09-1.94535E+09
 -1       297 4.00477E+09-6.30902E+08 1.36320E+13 3.92712E+08-1.03410E+08 1.47776E+09
 -1       298 4.14946E+09 4.14946E+09 1.19120E+13-1.03292E+08-2.12103E+08-2.12103E+08
 -1       299-3.05427E+08 5.11869E+09 1.19205E+13-1.67239E+08-2.10582E+08-4.92587E+06
 -1       300-8.14775E+09-8.14775E+09 1.27622E+13 7.69838E+08 5.17206E+08 5.17206E+08
 -1       301 5.11869E+09-3.05427E+08 1.19205E+13-1.67239E+08-4.92586E+06-2.10582E+08
 -1       302 2.55357E+09 2.55357E+09 9.90538E+12 3.58899E+08 2.33478E+08 2.33478E+08
 -1       303-3.48307E+08 3.81944E+09 9.91272E+12-2.08264E+07 2.28969E+08-3.06671E+07
 -1       304-6.67104E+09-6.67104E+09 1.09036E+13 1.18886E+08-1.03912E+08-1.03912E+08
 -1       305 3.81944E+09-3.48307E+08 9.91272E+12-2.08264E+07-3.06670E+07 2.28969E+08
 -1       306 2.19915E+09 2.19915E+09 7.65295E+12 1.51972E+08 1.48256E+08 1.48256E+08
 -1       307-2.52163E+08 3.05611E+09 7.65853E+12-4.97016E+07 1.44827E+08-2.83945E+07
 -1       308-5.47101E+09-5.47101E+09 8.77537E+12 2.53155E+08 4.31653E+07 4.31653E+07
 -1       309 3.05611E+09-2.52163E+08 7.65853E+12-4.97016E+07-2.83945E+07 1.44827E+08
 -1       310 1.44198E+09 1.44198E+09 5.21015E+12 1.37768E+08 1.79264E+08 1.79264E+08
 -1       311-1.76356E+08 2.05707E+09 5.21397E+12-2.58177E+07 1.75680E+08-3.17119E+07
 -1       312-3.97263E+09-3.97263E+09 6.42870E+12 1.43440E+08 8.33661E+06 8.33661E+06
 -1       313 2.05707E+09-1.76356E+08 5.21397E+12-2.58177E+07-3.17119E+07 1.75680E+08
 -1       314 7.00942E+08 7.00942E+08 2.63784E+12 4.22407E+07 1.59754E+08 1.59754E+08
 -1       315-1.38374E+08 9.95771E+08 2.63974E+12-2.34654E+07 1.56973E+08-5.12348E+07
 -1       316-2.44443E+09-2.44443E+09 3.92227E+12 9.60932E+07 2.72668E+07 2.72668E+07
 -1       317 9.95771E+08-1.38374E+08 2.63974E+12-2.34654E+07-5.12348E+07 1.56973E+08
 -1       318 4.60362E+08 4.60362E+08 2.54373E+09-2.59149E+07 2.34864E+08 2.34864E+08
 -1       319 5.78948E+08 5.82932E+08 2.73854E+09-3.82253E+07 2.35576E+08-1.28262E+07
 -1       320-7.23556E+08-7.23556E+08 1.31862E+12 4.07548E+07 1.26254E+07 1.26254E+07
 -1       321 5.82932E+08 5.78948E+08 2.73854E+09-3.82253E+07-1.28262E+07 2.35576E+08
 -3
    1PSTEP                        23           1           1          
    1PGM                1.000000E+00                                  
    1PGK                6.661483E+09                                  
    1PHID                         -1                                  
    1PSUBC                         0                                  
    1PMODE                         6                                  
  100CL  106 12989.89356         321                     2    6MODAL      1
 -4  TOSTRAIN    6    1
 -5  EXX         1    4    1    1
 -5  EYY         1    4    2    2
 -5  EZZ         1    4    3    3
 -5  EXY         1    4    1    2
 -5  EYZ         1    4    2    3
 -5  EZX         1    4    3    1
 -1         1 7.99912E-04 7.99912E-04 7.51288E+01-4.51063E-06-1.79165E+01-1.79165E+01
 -1         2 8.01314E-04 7.99423E-04 6.65964E+01 5.89719E-15-5.95947E-12-1.77622E+01
 -1         3-2.34962E+01-2.30448E+01 8.19693E+01 1.84412E-12-1.64217E-11 3.31724E+00
 -1         4-2.24449E+01-2.24449E+01 7.77837E+01 5.60683E-01 3.26793E+00 3.26793E+00
 -1         5 7.99423E-04 8.01314E-04 6.65964E+01-4.50074E-15-1.77622E+01 1.39523E-11
 -1         6 8.02896E-04 8.02896E-04 5.78188E+01 1.62587E-15-9.17346E-12 2.07742E-11
 -1         7-2.34871E+01-2.34871E+01 8.63642E+01-1.02956E-12-1.39235E-11 3.36212E-11
 -1         8-2.30448E+01-2.34962E+01 8.19693E+01-1.49467E-12 3.31724E+00 3.95565E-11
 -1         9-8.89547E-04-8.90650E-04 7.06885E+01 1.74092E-06-8.97708E+00-1.78279E+01
 -1        10-2.36386E+01-2.37539E+01 7.60979E+01-1.04273E-12-8.59046E-12-3.43045E+00
 -1        11-2.29259E+01-2.27468E+01 7.99213E+01 4.75482E-01 1.06798E+00 3.28764E+00
 -1        12-2.34539E+01-2.34539E+01 7.56842E+01-6.05813E-02-3.29506E+00-3.29506E+00
 -1        13-8.90650E-04-8.89547E-04 7.06885E+01 1.74092E-06-1.78279E+01-8.97708E+00
 -1        14-8.88213E-04-8.89000E-04 6.20356E+01-1.39515E-15-7.84329E-12-8.88093E+00
 -1        15-2.34935E+01-2.32213E+01 8.42121E+01-9.40914E-15-1.49515E-11 1.08260E+00
 -1        16-2.27468E+01-2.29259E+01 7.99213E+01 4.75482E-01 3.28764E+00 1.06798E+00
 -1        17-8.89000E-04-8.88213E-04 6.20356E+01 2.36226E-15-8.88093E+00 1.77332E-11
 -1        18-2.36341E+01-2.36341E+01 7.65348E+01-6.09454E-13-9.31616E-12 2.16972E-11
 -1        19-2.32213E+01-2.34935E+01 8.42121E+01-4.83759E-13 1.08260E+00 3.57325E-11
 -1        20-2.37539E+01-2.36386E+01 7.60979E+01 3.94873E-12-3.43045E+00 2.09694E-11
 -1        21-2.29165E+01-2.27188E+01 7.61793E+01-6.75533E-13-8.35520E-12-1.42179E-01
 -1        22-2.28933E+01-2.28933E+01 7.59695E+01 1.96467E-01-5.98223E-02-5.98223E-02
 -1        23-2.29121E+01-2.29121E+01 7.63717E+01-7.76259E-13-8.04035E-12 1.92842E-11
 -1        24-2.27188E+01-2.29165E+01 7.61793E+01 1.20546E-13-1.42179E-01 2.21888E-11
 -1        25-2.32909E+01-2.34962E+01 7.72586E+01 4.68821E-13-9.43268E-12 2.01135E-01
 -1        26-2.29290E+01-2.28081E+01 7.61933E+01 1.13891E-01 3.01943E-02-1.07254E-01
 -1        27-2.32835E+01-2.32835E+01 7.74752E+01-1.51277E-01 8.26035E-02 8.26035E-02
 -1        28-2.29164E+01-2.28395E+01 7.63936E+01-4.86618E-13-8.04622E-12 1.19533E-02
 -1        29-2.28081E+01-2.29290E+01 7.61933E+01 1.13891E-01-1.07254E-01 3.01943E-02
 -1        30-2.32841E+01-2.32841E+01 7.69600E+01-9.85883E-13-8.21658E-12 1.96064E-11
 -1        31-2.28395E+01-2.29164E+01 7.63936E+01-1.03420E-13 1.19533E-02 2.01091E-11
 -1        32-2.34962E+01-2.32909E+01 7.72586E+01-9.24368E-13 2.01135E-01 2.31626E-11
 -1        33-2.14010E+01-2.15101E+01 7.14902E+01 1.23985E-12-9.18710E-13 2.70689E-02
 -1        34-2.13677E+01-2.13677E+01 7.13683E+01-1.28167E-02 4.22616E-02 4.22616E-02
 -1        35-2.15007E+01-2.15007E+01 7.15437E+01 5.84943E-15-5.63134E-13 1.26122E-12
 -1        36-2.15101E+01-2.14010E+01 7.14902E+01-1.67146E-12 2.70689E-02 1.72295E-12
 -1        37-2.21456E+01-2.21749E+01 7.38861E+01 3.25384E-13-3.27220E-12-6.02275E-02
 -1        38-2.13801E+01-2.14408E+01 7.14336E+01 1.09271E-04-5.83760E-04 3.65439E-02
 -1        39-2.21909E+01-2.21909E+01 7.38735E+01 1.82415E-02-6.25600E-02-6.25600E-02
 -1        40-2.14528E+01-2.15012E+01 7.15206E+01 6.95185E-13-1.21141E-12-1.81015E-03
 -1        41-2.14408E+01-2.13801E+01 7.14336E+01 1.09271E-04 3.65439E-02-5.83760E-04
 -1        42-2.21933E+01-2.21933E+01 7.39512E+01-3.86453E-13-3.19827E-12 7.44963E-12
 -1        43-2.15012E+01-2.14528E+01 7.15206E+01-8.62167E-13-1.81015E-03 1.29797E-12
 -1        44-2.21749E+01-2.21456E+01 7.38861E+01-8.60936E-13-6.02275E-02 8.70579E-12
 -1        45-1.94431E+01-1.95074E+01 6.49111E+01 6.01858E-13 6.86114E-12-8.05403E-03
 -1        46-1.94552E+01-1.94552E+01 6.48571E+01 1.09723E-02-8.82640E-03-8.82640E-03
 -1        47-1.95137E+01-1.95137E+01 6.49665E+01 1.14053E-14 6.03473E-12-1.72724E-11
 -1        48-1.95074E+01-1.94431E+01 6.49111E+01 2.68584E-12-8.05403E-03-1.91725E-11
 -1        49-2.04568E+01-2.05500E+01 6.81753E+01 1.56993E-12 2.19906E-12 1.66278E-02
 -1        50-1.94544E+01-1.94831E+01 6.49097E+01 2.43108E-03 6.40158E-04-9.14807E-03
 -1        51-2.04527E+01-2.04527E+01 6.81063E+01-7.37987E-03 1.20427E-02 1.20427E-02
 -1        52-1.94801E+01-1.95158E+01 6.49642E+01-5.44284E-13 6.53244E-12 1.01908E-03
 -1        53-1.94831E+01-1.94544E+01 6.49097E+01 2.43108E-03-9.14807E-03 6.40158E-04
 -1        54-2.05420E+01-2.05420E+01 6.82488E+01 1.58427E-13 1.92900E-12-6.11509E-12
 -1        55-1.95158E+01-1.94801E+01 6.49642E+01 5.44877E-13 1.01908E-03-1.76478E-11
 -1        56-2.05500E+01-2.04568E+01 6.81753E+01 6.68176E-13 1.66278E-02-7.34700E-12
 -1        57-1.70020E+01-1.70696E+01 5.67681E+01-1.05404E-12 1.01939E-11 7.52335E-04
 -1        58-1.70034E+01-1.70034E+01 5.67121E+01-6.39424E-04 1.31302E-03 1.31302E-03
 -1        59-1.70677E+01-1.70677E+01 5.68215E+01-1.55147E-12 8.08212E-12-2.33155E-11
 -1        60-1.70696E+01-1.70020E+01 5.67681E+01-1.35305E-12 7.52335E-04-2.75051E-11
 -1        61-1.82517E+01-1.83181E+01 6.08502E+01-2.88716E-13 6.62352E-12-4.08451E-03
 -1        62-1.70044E+01-1.70380E+01 5.67573E+01-1.03529E-03 3.04935E-05 1.30361E-03
 -1        63-1.82589E+01-1.82589E+01 6.07957E+01 4.76566E-03-3.20175E-03-3.20175E-03
 -1        64-1.70363E+01-1.70704E+01 5.68121E+01-1.30944E-12 8.78003E-12-1.48892E-05
 -1        65-1.70380E+01-1.70044E+01 5.67573E+01-1.03529E-03 1.30361E-03 3.04934E-05
 -1        66-1.83199E+01-1.83199E+01 6.09064E+01-2.30133E-14 4.80191E-12-1.51480E-11
 -1        67-1.70704E+01-1.70363E+01 5.68121E+01-1.47803E-12-1.48892E-05-2.46775E-11
 -1        68-1.83181E+01-1.82517E+01 6.08502E+01 1.72136E-12-4.08451E-03-1.73384E-11
 -1        69-1.41381E+01-1.41917E+01 4.72048E+01-3.26492E-12 6.84999E-12-1.35195E-03
 -1        70-1.41420E+01-1.41420E+01 4.71612E+01 2.22176E-03-1.44534E-03-1.44534E-03
 -1        71-1.41919E+01-1.41919E+01 4.72489E+01 1.07013E-12 6.14816E-12-1.57153E-11
 -1        72-1.41917E+01-1.41381E+01 4.72048E+01 6.15444E-13-1.35195E-03-1.84456E-11
 -1        73-1.55960E+01-1.56567E+01 5.19900E+01-2.01387E-12 6.76927E-12 8.64327E-04
 -1        74-1.41423E+01-1.41681E+01 4.71985E+01-1.28925E-04 1.89844E-04-1.41743E-03
 -1        75-1.55988E+01-1.55988E+01 5.19408E+01 7.35963E-04 6.43267E-04 6.43267E-04
 -1        76-1.41662E+01-1.41941E+01 4.72423E+01 1.13499E-12 7.00004E-12 1.98477E-04
 -1        77-1.41681E+01-1.41423E+01 4.71985E+01-1.28925E-04-1.41743E-03 1.89844E-04
 -1        78-1.56558E+01-1.56558E+01 5.20390E+01-5.79276E-13 4.91800E-12-1.33393E-11
 -1        79-1.41941E+01-1.41662E+01 4.72423E+01 1.24895E-12 1.98477E-04-1.62723E-11
 -1        80-1.56567E+01-1.55960E+01 5.19900E+01 4.51751E-13 8.64327E-04-1.85334E-11
 -1        81-1.09232E+01-1.09652E+01 3.64707E+01-7.75512E-13 1.07269E-12-1.02496E-03
 -1        82-1.09254E+01-1.09254E+01 3.64363E+01 9.40780E-04-9.17774E-04-9.17774E-04
 -1        83-1.09649E+01-1.09649E+01 3.65049E+01-9.41585E-13 2.84490E-12-3.05675E-12
 -1        84-1.09652E+01-1.09232E+01 3.64707E+01-4.72958E-12-1.02496E-03-2.03982E-12
 -1        85-1.25513E+01-1.25992E+01 4.18421E+01-2.07522E-12 2.82367E-12-4.01634E-04
 -1        86-1.09258E+01-1.09463E+01 3.64652E+01-3.07677E-04 1.75775E-04-8.96550E-04
 -1        87-1.25545E+01-1.25545E+01 4.18031E+01 1.56715E-03-2.67214E-04-2.67214E-04
 -1        88-1.09450E+01-1.09666E+01 3.64995E+01 8.69942E-13 1.02028E-12 1.55756E-04
 -1        89-1.09463E+01-1.09258E+01 3.64652E+01-3.07677E-04-8.96550E-04 1.75775E-04
 -1        90-1.25991E+01-1.25991E+01 4.18812E+01 3.22710E-13 2.71675E-12-7.13549E-12
 -1        91-1.09666E+01-1.09450E+01 3.64995E+01-2.29539E-12 1.55756E-04-2.63400E-12
 -1        92-1.25992E+01-1.25513E+01 4.18421E+01 3.10718E-13-4.01634E-04-7.25800E-12
 -1        93-7.43647E+00-7.46502E+00 2.48293E+01 1.37729E-12-1.02192E-11-1.17570E-03
 -1        94-7.43826E+00-7.43826E+00 2.48061E+01 8.52851E-04-1.10973E-03-1.10973E-03
 -1        95-7.46491E+00-7.46491E+00 2.48526E+01-5.40832E-14-5.25029E-12 1.28945E-11
 -1        96-7.46502E+00-7.43647E+00 2.48293E+01 2.17275E-12-1.17570E-03 1.67549E-11
 -1        97-9.19504E+00-9.23037E+00 3.06529E+01 1.44849E-16-3.73904E-12-9.08866E-05
 -1        98-7.43848E+00-7.45231E+00 2.48258E+01-1.59824E-04 1.96312E-04-1.08754E-03
 -1        99-9.19710E+00-9.19710E+00 3.06242E+01 8.87960E-04-5.16076E-05-5.16076E-05
 -1       100-7.45135E+00-7.46608E+00 2.48490E+01-1.26186E-12-6.61595E-12 1.80018E-04
 -1       101-7.45231E+00-7.43848E+00 2.48258E+01-1.59824E-04-1.08754E-03 1.96312E-04
 -1       102-9.23013E+00-9.23013E+00 3.06816E+01 2.37159E-14-1.44227E-12 4.50673E-12
 -1       103-7.46608E+00-7.45135E+00 2.48490E+01 3.97752E-13 1.80018E-04 1.38482E-11
 -1       104-9.23037E+00-9.19504E+00 3.06529E+01 3.65430E-13-9.08866E-05 5.99132E-12
 -1       105-3.76516E+00-3.77959E+00 1.25708E+01-1.47716E-11-7.08401E-12-1.06747E-03
 -1       106-3.76601E+00-3.76601E+00 1.25591E+01 2.61490E-04-9.88955E-04-9.88955E-04
 -1       107-3.77942E+00-3.77942E+00 1.25824E+01 8.49238E-12-4.64956E-12 1.62121E-11
 -1       108-3.77959E+00-3.76516E+00 1.25708E+01-1.99302E-12-1.06747E-03 1.67681E-11
 -1       109-5.61010E+00-5.63155E+00 1.87020E+01-5.68444E-12-6.70094E-12-2.39761E-04
 -1       110-3.76611E+00-3.77314E+00 1.25690E+01-1.45262E-04 3.17168E-04-9.71737E-04
 -1       111-5.61139E+00-5.61139E+00 1.86844E+01 5.94862E-04-1.68794E-04-1.68794E-04
 -1       112-3.77263E+00-3.78003E+00 1.25806E+01-2.02181E-13-6.35217E-12 2.89214E-04
 -1       113-3.77314E+00-3.76611E+00 1.25690E+01-1.45262E-04-9.71737E-04 3.17168E-04
 -1       114-5.63145E+00-5.63145E+00 1.87195E+01 4.19432E-12-4.07257E-12 1.10921E-11
 -1       115-3.78003E+00-3.77263E+00 1.25806E+01 3.44705E-13 2.89214E-04 1.56610E-11
 -1       116-5.63155E+00-5.61010E+00 1.87020E+01 1.22517E-12-2.39761E-04 1.39297E-11
 -1       117-1.33398E-03-1.53685E-03 8.23315E-03 8.52909E-12 1.51944E-13-1.48763E-03
 -1       118-2.09937E-03-2.09937E-03 1.07977E-02-1.60425E-04-1.45392E-03-1.45392E-03
 -1       119-1.36722E-03-1.36722E-03 6.10139E-03-7.39269E-12-3.15004E-12 2.78502E-12
 -1       120-1.53685E-03-1.33398E-03 8.23315E-03 4.30543E-12-1.48763E-03 3.43180E-12
 -1       121-1.88555E+00-1.89267E+00 6.28646E+00-7.06250E-12-2.29930E-12-1.06960E-04
 -1       122-1.96340E-03-1.98807E-03 1.13808E-02-2.36633E-04 7.94002E-05-1.45833E-03
 -1       123-1.88616E+00-1.88616E+00 6.28122E+00 2.52292E-04-7.81571E-05-7.81571E-05
 -1       124-1.52056E-03-1.69877E-03 9.05858E-03-2.19308E-13-3.89314E-12 1.79457E-05
 -1       125-1.98807E-03-1.96340E-03 1.13808E-02-2.36633E-04-1.45833E-03 7.94002E-05
 -1       126-1.89270E+00-1.89270E+00 6.29188E+00-1.84506E-13-1.46536E-12 5.23464E-12
 -1       127-1.69877E-03-1.52056E-03 9.05858E-03-5.12140E-13 1.79457E-05 2.44714E-12
 -1       128-1.89267E+00-1.88555E+00 6.28646E+00 1.62906E-12-1.06960E-04 5.70121E-12
 -1       129 7.99912E-04 7.99912E-04 7.51288E+01 4.51063E-06-1.79165E+01 1.79165E+01
 -1       130 8.01314E-04 7.99423E-04 6.65964E+01 5.47479E-15-6.61263E-12 1.77622E+01
 -1       131-2.34962E+01-2.30448E+01 8.19693E+01-5.17156E-13-1.74444E-11-3.31724E+00
 -1       132-2.24449E+01-2.24449E+01 7.77837E+01-5.60683E-01 3.26793E+00-3.26793E+00
 -1       133-8.90650E-04-8.89547E-04 7.06885E+01-1.74092E-06-1.78279E+01 8.97708E+00
 -1       134-8.88213E-04-8.89000E-04 6.20356E+01 2.27943E-15-7.99432E-12 8.88093E+00
 -1       135-2.34935E+01-2.32213E+01 8.42121E+01-3.76449E-13-1.51343E-11-1.08260E+00
 -1       136-2.27468E+01-2.29259E+01 7.99213E+01-4.75482E-01 3.28764E+00-1.06798E+00
 -1       137-8.89547E-04-8.90650E-04 7.06885E+01-1.74092E-06-8.97708E+00 1.78279E+01
 -1       138-2.36386E+01-2.37539E+01 7.60979E+01 1.50851E-12-9.60187E-12 3.43045E+00
 -1       139-2.29259E+01-2.27468E+01 7.99213E+01-4.75482E-01 1.06798E+00-3.28764E+00
 -1       140-2.34539E+01-2.34539E+01 7.56842E+01 6.05813E-02-3.29506E+00 3.29506E+00
 -1       141-2.29165E+01-2.27188E+01 7.61793E+01 2.66205E-13-1.01761E-11 1.42179E-01
 -1       142-2.28933E+01-2.28933E+01 7.59695E+01-1.96467E-01-5.98223E-02 5.98223E-02
 -1       143-2.29164E+01-2.28395E+01 7.63936E+01-3.98283E-13-8.61664E-12-1.19533E-02
 -1       144-2.28081E+01-2.29290E+01 7.61933E+01-1.13891E-01-1.07254E-01-3.01943E-02
 -1       145-2.32909E+01-2.34962E+01 7.72586E+01-4.93459E-14-1.04498E-11-2.01135E-01
 -1       146-2.29290E+01-2.28081E+01 7.61933E+01-1.13891E-01 3.01943E-02 1.07254E-01
 -1       147-2.32835E+01-2.32835E+01 7.74752E+01 1.51277E-01 8.26035E-02-8.26035E-02
 -1       148-2.14010E+01-2.15101E+01 7.14902E+01 2.28683E-12-1.61031E-12-2.70689E-02
 -1       149-2.13677E+01-2.13677E+01 7.13683E+01 1.28167E-02 4.22616E-02-4.22616E-02
 -1       150-2.14528E+01-2.15012E+01 7.15206E+01 1.07001E-12-1.32665E-12 1.81015E-03
 -1       151-2.14408E+01-2.13801E+01 7.14336E+01-1.09271E-04 3.65439E-02 5.83760E-04
 -1       152-2.21456E+01-2.21749E+01 7.38861E+01 1.04832E-12-4.55987E-12 6.02275E-02
 -1       153-2.13801E+01-2.14408E+01 7.14336E+01-1.09271E-04-5.83760E-04-3.65439E-02
 -1       154-2.21909E+01-2.21909E+01 7.38735E+01-1.82415E-02-6.25600E-02 6.25600E-02
 -1       155-1.94431E+01-1.95074E+01 6.49111E+01-1.54151E-12 8.58577E-12 8.05403E-03
 -1       156-1.94552E+01-1.94552E+01 6.48571E+01-1.09723E-02-8.82640E-03 8.82640E-03
 -1       157-1.94801E+01-1.95158E+01 6.49642E+01 3.39961E-13 6.85257E-12-1.01908E-03
 -1       158-1.94831E+01-1.94544E+01 6.49097E+01-2.43108E-03-9.14807E-03-6.40158E-04
 -1       159-2.04568E+01-2.05500E+01 6.81753E+01-3.27346E-13 2.94626E-12-1.66278E-02
 -1       160-1.94544E+01-1.94831E+01 6.49097E+01-2.43108E-03 6.40158E-04 9.14807E-03
 -1       161-2.04527E+01-2.04527E+01 6.81063E+01 7.37987E-03 1.20427E-02-1.20427E-02
 -1       162-1.70020E+01-1.70696E+01 5.67681E+01-2.29036E-12 1.12020E-11-7.52335E-04
 -1       163-1.70034E+01-1.70034E+01 5.67121E+01 6.39424E-04 1.31302E-03-1.31302E-03
 -1       164-1.70363E+01-1.70704E+01 5.68121E+01-2.29820E-12 9.32013E-12 1.48892E-05
 -1       165-1.70380E+01-1.70044E+01 5.67573E+01 1.03529E-03 1.30361E-03-3.04935E-05
 -1       166-1.82517E+01-1.83181E+01 6.08502E+01-9.96860E-13 8.05261E-12 4.08451E-03
 -1       167-1.70044E+01-1.70380E+01 5.67573E+01 1.03529E-03 3.04935E-05-1.30361E-03
 -1       168-1.82589E+01-1.82589E+01 6.07957E+01-4.76566E-03-3.20175E-03 3.20175E-03
 -1       169-1.41381E+01-1.41917E+01 4.72048E+01 1.45480E-12 1.02810E-11 1.35195E-03
 -1       170-1.41420E+01-1.41420E+01 4.71612E+01-2.22176E-03-1.44534E-03 1.44534E-03
 -1       171-1.41662E+01-1.41941E+01 4.72423E+01-5.23523E-13 8.13976E-12-1.98477E-04
 -1       172-1.41681E+01-1.41423E+01 4.71985E+01 1.28925E-04-1.41743E-03-1.89844E-04
 -1       173-1.55960E+01-1.56567E+01 5.19900E+01-1.26144E-12 8.15521E-12-8.64327E-04
 -1       174-1.41423E+01-1.41681E+01 4.71985E+01 1.28925E-04 1.89844E-04 1.41743E-03
 -1       175-1.55988E+01-1.55988E+01 5.19408E+01-7.35963E-04 6.43267E-04-6.43267E-04
 -1       176-1.09232E+01-1.09652E+01 3.64707E+01 1.57777E-12 5.22135E-12 1.02496E-03
 -1       177-1.09254E+01-1.09254E+01 3.64363E+01-9.40780E-04-9.17774E-04 9.17774E-04
 -1       178-1.09450E+01-1.09666E+01 3.64995E+01-6.91073E-14 2.97644E-12-1.55756E-04
 -1       179-1.09463E+01-1.09258E+01 3.64652E+01 3.07677E-04-8.96550E-04-1.75775E-04
 -1       180-1.25513E+01-1.25992E+01 4.18421E+01 9.62739E-13 6.07725E-12 4.01634E-04
 -1       181-1.09258E+01-1.09463E+01 3.64652E+01 3.07677E-04 1.75775E-04 8.96550E-04
 -1       182-1.25545E+01-1.25545E+01 4.18031E+01-1.56715E-03-2.67214E-04 2.67214E-04
 -1       183-7.43647E+00-7.46502E+00 2.48293E+01-8.81183E-12-5.17816E-12 1.17570E-03
 -1       184-7.43826E+00-7.43826E+00 2.48061E+01-8.52851E-04-1.10973E-03 1.10973E-03
 -1       185-7.45135E+00-7.46608E+00 2.48490E+01-1.77504E-12-6.01366E-12-1.80018E-04
 -1       186-7.45231E+00-7.43848E+00 2.48258E+01 1.59824E-04-1.08754E-03-1.96312E-04
 -1       187-9.19504E+00-9.23037E+00 3.06529E+01-3.02961E-12 5.92305E-13 9.08866E-05
 -1       188-7.43848E+00-7.45231E+00 2.48258E+01 1.59824E-04 1.96312E-04 1.08754E-03
 -1       189-9.19710E+00-9.19710E+00 3.06242E+01-8.87960E-04-5.16076E-05 5.16076E-05
 -1       190-3.76516E+00-3.77959E+00 1.25708E+01-3.73544E-12-1.02994E-11 1.06747E-03
 -1       191-3.76601E+00-3.76601E+00 1.25591E+01-2.61490E-04-9.88955E-04 9.88955E-04
 -1       192-3.77263E+00-3.78003E+00 1.25806E+01-1.51155E-12-6.56701E-12-2.89214E-04
 -1       193-3.77314E+00-3.76611E+00 1.25690E+01 1.45262E-04-9.71737E-04-3.17168E-04
 -1       194-5.61010E+00-5.63155E+00 1.87020E+01-6.02786E-12-5.58365E-12 2.39761E-04
 -1       195-3.76611E+00-3.77314E+00 1.25690E+01 1.45262E-04 3.17168E-04 9.71737E-04
 -1       196-5.61139E+00-5.61139E+00 1.86844E+01-5.94862E-04-1.68794E-04 1.68794E-04
 -1       197-1.33398E-03-1.53685E-03 8.23315E-03 4.77211E-12 1.11209E-12 1.48763E-03
 -1       198-2.09937E-03-2.09937E-03 1.07977E-02 1.60425E-04-1.45392E-03 1.45392E-03
 -1       199-1.52056E-03-1.69877E-03 9.05858E-03 5.56570E-13-3.05347E-14-1.79457E-05
 -1       200-1.98807E-03-1.96340E-03 1.13808E-02 2.36633E-04-1.45833E-03-7.94002E-05
 -1       201-1.88555E+00-1.89267E+00 6.28646E+00 3.31474E-12-4.72746E-12 1.06960E-04
 -1       202-1.96340E-03-1.98807E-03 1.13808E-02 2.36633E-04 7.94002E-05 1.45833E-03
 -1       203-1.88616E+00-1.88616E+00 6.28122E+00-2.52292E-04-7.81571E-05 7.81571E-05
 -1       204 7.99912E-04 7.99912E-04 7.51288E+01 4.51063E-06 1.79165E+01-1.79165E+01
 -1       205-2.24449E+01-2.24449E+01 7.77837E+01-5.60683E-01-3.26793E+00 3.26793E+00
 -1       206 7.99423E-04 8.01314E-04 6.65964E+01 2.95250E-15 1.77622E+01 1.48568E-11
 -1       207-2.30448E+01-2.34962E+01 8.19693E+01 2.56058E-12-3.31724E+00 4.13156E-11
 -1       208-8.89547E-04-8.90650E-04 7.06885E+01-1.74092E-06 8.97708E+00-1.78279E+01
 -1       209-2.34539E+01-2.34539E+01 7.56842E+01 6.05813E-02 3.29506E+00-3.29506E+00
 -1       210-2.29259E+01-2.27468E+01 7.99213E+01-4.75482E-01-1.06798E+00 3.28764E+00
 -1       211-8.90650E-04-8.89547E-04 7.06885E+01-1.74092E-06 1.78279E+01-8.97708E+00
 -1       212-2.27468E+01-2.29259E+01 7.99213E+01-4.75482E-01-3.28764E+00 1.06798E+00
 -1       213-8.89000E-04-8.88213E-04 6.20356E+01 2.18228E-15 8.88093E+00 1.82614E-11
 -1       214-2.37539E+01-2.36386E+01 7.60979E+01-3.49309E-12 3.43045E+00 2.22562E-11
 -1       215-2.32213E+01-2.34935E+01 8.42121E+01-9.14893E-14-1.08260E+00 3.65616E-11
 -1       216-2.28933E+01-2.28933E+01 7.59695E+01-1.96467E-01 5.98223E-02-5.98223E-02
 -1       217-2.27188E+01-2.29165E+01 7.61793E+01 2.81389E-13 1.42179E-01 2.40464E-11
 -1       218-2.32835E+01-2.32835E+01 7.74752E+01 1.51277E-01-8.26035E-02 8.26035E-02
 -1       219-2.29290E+01-2.28081E+01 7.61933E+01-1.13891E-01-3.01943E-02-1.07254E-01
 -1       220-2.28081E+01-2.29290E+01 7.61933E+01-1.13891E-01 1.07254E-01 3.01943E-02
 -1       221-2.34962E+01-2.32909E+01 7.72586E+01 1.60747E-12-2.01135E-01 2.52426E-11
 -1       222-2.28395E+01-2.29164E+01 7.63936E+01-3.36169E-13-1.19533E-02 2.08209E-11
 -1       223-2.13677E+01-2.13677E+01 7.13683E+01 1.28167E-02-4.22616E-02 4.22616E-02
 -1       224-2.15101E+01-2.14010E+01 7.14902E+01-7.98412E-13-2.70689E-02 2.79207E-12
 -1       225-2.21909E+01-2.21909E+01 7.38735E+01-1.82415E-02 6.25600E-02-6.25600E-02
 -1       226-2.13801E+01-2.14408E+01 7.14336E+01-1.09271E-04 5.83760E-04 3.65439E-02
 -1       227-2.14408E+01-2.13801E+01 7.14336E+01-1.09271E-04-3.65439E-02-5.83760E-04
 -1       228-2.21749E+01-2.21456E+01 7.38861E+01-4.53162E-14 6.02275E-02 1.03517E-11
 -1       229-2.15012E+01-2.14528E+01 7.15206E+01-2.53990E-13 1.81015E-03 1.79723E-12
 -1       230-1.94552E+01-1.94552E+01 6.48571E+01-1.09723E-02 8.82640E-03-8.82640E-03
 -1       231-1.95074E+01-1.94431E+01 6.49111E+01-8.59191E-13 8.05403E-03-2.04248E-11
 -1       232-2.04527E+01-2.04527E+01 6.81063E+01 7.37987E-03-1.20427E-02 1.20427E-02
 -1       233-1.94544E+01-1.94831E+01 6.49097E+01-2.43108E-03-6.40158E-04-9.14807E-03
 -1       234-1.94831E+01-1.94544E+01 6.49097E+01-2.43108E-03 9.14807E-03 6.40158E-04
 -1       235-2.05500E+01-2.04568E+01 6.81753E+01-1.86159E-13-1.66278E-02-6.90302E-12
 -1       236-1.95158E+01-1.94801E+01 6.49642E+01-4.54758E-15-1.01908E-03-1.79216E-11
 -1       237-1.70034E+01-1.70034E+01 5.67121E+01 6.39424E-04-1.31302E-03 1.31302E-03
 -1       238-1.70696E+01-1.70020E+01 5.67681E+01 2.91358E-12-7.52335E-04-2.65923E-11
 -1       239-1.82589E+01-1.82589E+01 6.07957E+01-4.76566E-03 3.20175E-03-3.20175E-03
 -1       240-1.70044E+01-1.70380E+01 5.67573E+01 1.03529E-03-3.04934E-05 1.30361E-03
 -1       241-1.70380E+01-1.70044E+01 5.67573E+01 1.03529E-03-1.30361E-03 3.04934E-05
 -1       242-1.83181E+01-1.82517E+01 6.08502E+01 9.32729E-13 4.08451E-03-1.90086E-11
 -1       243-1.70704E+01-1.70363E+01 5.68121E+01 7.97478E-13 1.48892E-05-2.42098E-11
 -1       244-1.41420E+01-1.41420E+01 4.71612E+01-2.22176E-03 1.44534E-03-1.44534E-03
 -1       245-1.41917E+01-1.41381E+01 4.72048E+01-1.56190E-12 1.35195E-03-2.30588E-11
 -1       246-1.55988E+01-1.55988E+01 5.19408E+01-7.35963E-04-6.43267E-04 6.43267E-04
 -1       247-1.41423E+01-1.41681E+01 4.71985E+01 1.28925E-04-1.89844E-04-1.41743E-03
 -1       248-1.41681E+01-1.41423E+01 4.71985E+01 1.28925E-04 1.41743E-03 1.89844E-04
 -1       249-1.56567E+01-1.55960E+01 5.19900E+01-1.20560E-12-8.64327E-04-2.04563E-11
 -1       250-1.41941E+01-1.41662E+01 4.72423E+01 1.42832E-14-1.98477E-04-1.85848E-11
 -1       251-1.09254E+01-1.09254E+01 3.64363E+01-9.40780E-04 9.17774E-04-9.17774E-04
 -1       252-1.09652E+01-1.09232E+01 3.64707E+01 5.20159E-12 1.02496E-03-3.52093E-12
 -1       253-1.25545E+01-1.25545E+01 4.18031E+01-1.56715E-03 2.67214E-04-2.67214E-04
 -1       254-1.09258E+01-1.09463E+01 3.64652E+01 3.07677E-04-1.75775E-04-8.96550E-04
 -1       255-1.09463E+01-1.09258E+01 3.64652E+01 3.07677E-04 8.96550E-04 1.75775E-04
 -1       256-1.25992E+01-1.25513E+01 4.18421E+01 1.15440E-12 4.01634E-04-1.07541E-11
 -1       257-1.09666E+01-1.09450E+01 3.64995E+01 7.43005E-13-1.55756E-04-2.71724E-12
 -1       258-7.43826E+00-7.43826E+00 2.48061E+01-8.52851E-04 1.10973E-03-1.10973E-03
 -1       259-7.46502E+00-7.43647E+00 2.48293E+01-3.09046E-12 1.17570E-03 1.45908E-11
 -1       260-9.19710E+00-9.19710E+00 3.06242E+01-8.87960E-04 5.16076E-05-5.16076E-05
 -1       261-7.43848E+00-7.45231E+00 2.48258E+01 1.59824E-04-1.96312E-04-1.08754E-03
 -1       262-7.45231E+00-7.43848E+00 2.48258E+01 1.59824E-04 1.08754E-03 1.96312E-04
 -1       263-9.23037E+00-9.19504E+00 3.06529E+01-9.58630E-13 9.08866E-05 4.38008E-12
 -1       264-7.46608E+00-7.45135E+00 2.48490E+01-5.99437E-13-1.80018E-04 1.27861E-11
 -1       265-3.76601E+00-3.76601E+00 1.25591E+01-2.61490E-04 9.88955E-04-9.88955E-04
 -1       266-3.77959E+00-3.76516E+00 1.25708E+01 3.43852E-12 1.06747E-03 2.26977E-11
 -1       267-5.61139E+00-5.61139E+00 1.86844E+01-5.94862E-04 1.68794E-04-1.68794E-04
 -1       268-3.76611E+00-3.77314E+00 1.25690E+01 1.45262E-04-3.17168E-04-9.71737E-04
 -1       269-3.77314E+00-3.76611E+00 1.25690E+01 1.45262E-04 9.71737E-04 3.17168E-04
 -1       270-5.63155E+00-5.61010E+00 1.87020E+01-1.62128E-13 2.39761E-04 1.42989E-11
 -1       271-3.78003E+00-3.77263E+00 1.25806E+01 7.05217E-12-2.89214E-04 1.92080E-11
 -1       272-2.09937E-03-2.09937E-03 1.07977E-02 1.60425E-04 1.45392E-03-1.45392E-03
 -1       273-1.53685E-03-1.33398E-03 8.23315E-03-2.21738E-12 1.48763E-03-3.73355E-12
 -1       274-1.88616E+00-1.88616E+00 6.28122E+00-2.52292E-04 7.81571E-05-7.81571E-05
 -1       275-1.96340E-03-1.98807E-03 1.13808E-02 2.36633E-04-7.94002E-05-1.45833E-03
 -1       276-1.98807E-03-1.96340E-03 1.13808E-02 2.36633E-04 1.45833E-03 7.94002E-05
 -1       277-1.89267E+00-1.88555E+00 6.28646E+00 5.35259E-14 1.06960E-04 5.93574E-12
 -1       278-1.69877E-03-1.52056E-03 9.05858E-03-2.17702E-12-1.79457E-05 1.06592E-12
 -1       279 7.99912E-04 7.99912E-04 7.51288E+01-4.51063E-06 1.79165E+01 1.79165E+01
 -1       280-2.24449E+01-2.24449E+01 7.77837E+01 5.60683E-01-3.26793E+00-3.26793E+00
 -1       281-8.90650E-04-8.89547E-04 7.06885E+01 1.74092E-06 1.78279E+01 8.97708E+00
 -1       282-2.27468E+01-2.29259E+01 7.99213E+01 4.75482E-01-3.28764E+00-1.06798E+00
 -1       283-8.89547E-04-8.90650E-04 7.06885E+01 1.74092E-06 8.97708E+00 1.78279E+01
 -1       284-2.34539E+01-2.34539E+01 7.56842E+01-6.05813E-02 3.29506E+00 3.29506E+00
 -1       285-2.29259E+01-2.27468E+01 7.99213E+01 4.75482E-01-1.06798E+00-3.28764E+00
 -1       286-2.28933E+01-2.28933E+01 7.59695E+01 1.96467E-01 5.98223E-02 5.98223E-02
 -1       287-2.28081E+01-2.29290E+01 7.61933E+01 1.13891E-01 1.07254E-01-3.01943E-02
 -1       288-2.32835E+01-2.32835E+01 7.74752E+01-1.51277E-01-8.26035E-02-8.26035E-02
 -1       289-2.29290E+01-2.28081E+01 7.61933E+01 1.13891E-01-3.01943E-02 1.07254E-01
 -1       290-2.13677E+01-2.13677E+01 7.13683E+01-1.28167E-02-4.22616E-02-4.22616E-02
 -1       291-2.14408E+01-2.13801E+01 7.14336E+01 1.09271E-04-3.65439E-02 5.83760E-04
 -1       292-2.21909E+01-2.21909E+01 7.38735E+01 1.82415E-02 6.25600E-02 6.25600E-02
 -1       293-2.13801E+01-2.14408E+01 7.14336E+01 1.09271E-04 5.83760E-04-3.65439E-02
 -1       294-1.94552E+01-1.94552E+01 6.48571E+01 1.09723E-02 8.82640E-03 8.82640E-03
 -1       295-1.94831E+01-1.94544E+01 6.49097E+01 2.43108E-03 9.14807E-03-6.40158E-04
 -1       296-2.04527E+01-2.04527E+01 6.81063E+01-7.37987E-03-1.20427E-02-1.20427E-02
 -1       297-1.94544E+01-1.94831E+01 6.49097E+01 2.43108E-03-6.40158E-04 9.14807E-03
 -1       298-1.70034E+01-1.70034E+01 5.67121E+01-6.39424E-04-1.31302E-03-1.31302E-03
 -1       299-1.70380E+01-1.70044E+01 5.67573E+01-1.03529E-03-1.30361E-03-3.04935E-05
 -1       300-1.82589E+01-1.82589E+01 6.07957E+01 4.76566E-03 3.20175E-03 3.20175E-03
 -1       301-1.70044E+01-1.70380E+01 5.67573E+01-1.03529E-03-3.04934E-05-1.30361E-03
 -1       302-1.41420E+01-1.41420E+01 4.71612E+01 2.22176E-03 1.44534E-03 1.44534E-03
 -1       303-1.41681E+01-1.41423E+01 4.71985E+01-1.28925E-04 1.41743E-03-1.89844E-04
 -1       304-1.55988E+01-1.55988E+01 5.19408E+01 7.35963E-04-6.43267E-04-6.43267E-04
 -1       305-1.41423E+01-1.41681E+01 4.71985E+01-1.28925E-04-1.89844E-04 1.41743E-03
 -1       306-1.09254E+01-1.09254E+01 3.64363E+01 9.40780E-04 9.17774E-04 9.17774E-04
 -1       307-1.09463E+01-1.09258E+01 3.64652E+01-3.07677E-04 8.96550E-04-1.75775E-04
 -1       308-1.25545E+01-1.25545E+01 4.18031E+01 1.56715E-03 2.67214E-04 2.67214E-04
 -1       309-1.09258E+01-1.09463E+01 3.64652E+01-3.07677E-04-1.75775E-04 8.96550E-04
 -1       310-7.43826E+00-7.43826E+00 2.48061E+01 8.52851E-04 1.10973E-03 1.10973E-03
 -1       311-7.45231E+00-7.43848E+00 2.48258E+01-1.59824E-04 1.08754E-03-1.96312E-04
 -1       312-9.19710E+00-9.19710E+00 3.06242E+01 8.87960E-04 5.16076E-05 5.16076E-05
 -1       313-7.43848E+00-7.45231E+00 2.48258E+01-1.59824E-04-1.96312E-04 1.08754E-03
 -1       314-3.76601E+00-3.76601E+00 1.25591E+01 2.61490E-04 9.88955E-04 9.88955E-04
 -1       315-3.77314E+00-3.76611E+00 1.25690E+01-1.45262E-04 9.71737E-04-3.17168E-04
 -1       316-5.61139E+00-5.61139E+00 1.86844E+01 5.94862E-04 1.68794E-04 1.68794E-04
 -1       317-3.76611E+00-3.77314E+00 1.25690E+01-1.45262E-04-3.17168E-04 9.71737E-04
 -1       318-2.09937E-03-2.09937E-03 1.07977E-02-1.60425E-04 1.45392E-03 1.45392E-03
 -1       319-1.98807E-03-1.96340E-03 1.13808E-02-2.36633E-04 1.45833E-03-7.94002E-05
 -1       320-1.88616E+00-1.88616E+00 6.28122E+00 2.52292E-04 7.81571E-05 7.81571E-05
 -1       321-1.96340E-03-1.98807E-03 1.13808E-02-2.36633E-04-7.94002E-05 1.45833E-03
 -3
    1PSTEP                        24           1           1          
    1PGM                1.000000E+00                                  
    1PGK                6.661483E+09                                  
    1PHID                         -1                                  
    1PSUBC                         0                                  
    1PMODE                         6                                  
  100CL  106 12989.89356         321                     2    6MODAL      1
 -4  ERROR       1    1
 -5  STR(%)      1    1    0    0
 -1         1 1.02229E+00
 -1         2 1.02229E+00
 -1         3 1.02229E+00
 -1         4 1.02229E+00
 -1         5 1.02229E+00
 -1         6 1.02229E+00
 -1         7 1.02229E+00
 -1         8 1.02229E+00
 -1         9 1.02229E+00
 -1        10 1.02229E+00
 -1        11 1.02229E+00
 -1        12 1.02229E+00
 -1        13 1.02229E+00
 -1        14 1.02229E+00
 -1        15 1.02229E+00
 -1        16 1.02229E+00
 -1        17 1.02229E+00
 -1        18 1.02229E+00
 -1        19 1.02229E+00
 -1        20 1.02229E+00
 -1        21 2.54097E-01
 -1        22 2.54097E-01
 -1        23 2.54097E-01
 -1        24 2.54097E-01
 -1        25 6.38194E-01
 -1        26 2.54097E-01
 -1        27 6.38194E-01
 -1        28 2.54097E-01
 -1        29 2.54097E-01
 -1        30 6.38194E-01
 -1        31 2.54097E-01
 -1        32 6.38194E-01
 -1        33 3.71146E-01
 -1        34 3.71146E-01
 -1        35 3.71146E-01
 -1        36 3.71146E-01
 -1        37 3.12622E-01
 -1        38 3.71146E-01
 -1        39 3.12622E-01
 -1        40 3.71146E-01
 -1        41 3.71146E-01
 -1        42 3.12622E-01
 -1        43 3.71146E-01
 -1        44 3.12622E-01
 -1        45 5.08370E-01
 -1        46 5.08370E-01
 -1        47 5.08370E-01
 -1        48 5.08370E-01
 -1        49 4.39758E-01
 -1        50 5.08370E-01
 -1        51 4.39758E-01
 -1        52 5.08370E-01
 -1        53 5.08370E-01
 -1        54 4.39758E-01
 -1        55 5.08370E-01
 -1        56 4.39758E-01
 -1        57 6.83589E-01
 -1        58 6.83589E-01
 -1        59 6.83589E-01
 -1        60 6.83589E-01
 -1        61 5.95979E-01
 -1        62 6.83589E-01
 -1        63 5.95979E-01
 -1        64 6.83589E-01
 -1        65 6.83589E-01
 -1        66 5.95979E-01
 -1        67 6.83589E-01
 -1        68 5.95979E-01
 -1        69 9.27434E-01
 -1        70 9.27434E-01
 -1        71 9.27434E-01
 -1        72 9.27434E-01
 -1        73 8.05512E-01
 -1        74 9.27434E-01
 -1        75 8.05512E-01
 -1        76 9.27434E-01
 -1        77 9.27434E-01
 -1        78 8.05512E-01
 -1        79 9.27434E-01
 -1        80 8.05512E-01
 -1        81 1.31371E+00
 -1        82 1.31371E+00
 -1        83 1.31371E+00
 -1        84 1.31371E+00
 -1        85 1.12057E+00
 -1        86 1.31371E+00
 -1        87 1.12057E+00
 -1        88 1.31371E+00
 -1        89 1.31371E+00
 -1        90 1.12057E+00
 -1        91 1.31371E+00
 -1        92 1.12057E+00
 -1        93 5.36074E+00
 -1        94 5.36074E+00
 -1        95 5.36074E+00
 -1        96 5.36074E+00
 -1        97 3.33723E+00
 -1        98 5.36074E+00
 -1        99 3.33723E+00
 -1       100 5.36074E+00
 -1       101 5.36074E+00
 -1       102 3.33723E+00
 -1       103 5.36074E+00
 -1       104 3.33723E+00
 -1       105 1.83496E+01
 -1       106 1.83496E+01
 -1       107 1.83496E+01
 -1       108 1.83496E+01
 -1       109 1.18552E+01
 -1       110 1.83496E+01
 -1       111 1.18552E+01
 -1       112 1.83496E+01
 -1       113 1.83496E+01
 -1       114 1.18552E+01
 -1       115 1.83496E+01
 -1       116 1.18552E+01
 -1       117 1.83496E+01
 -1       118 1.83496E+01
 -1       119 1.83496E+01
 -1       120 1.83496E+01
 -1       121 1.83496E+01
 -1       122 1.83496E+01
 -1       123 1.83496E+01
 -1       124 1.83496E+01
 -1       125 1.83496E+01
 -1       126 1.83496E+01
 -1       127 1.83496E+01
 -1       128 1.83496E+01
 -1       129 1.02229E+00
 -1       130 1.02229E+00
 -1       131 1.02229E+00
 -1       132 1.02229E+00
 -1       133 1.02229E+00
 -1       134 1.02229E+00
 -1       135 1.02229E+00
 -1       136 1.02229E+00
 -1       137 1.02229E+00
 -1       138 1.02229E+00
 -1       139 1.02229E+00
 -1       140 1.02229E+00
 -1       141 2.54097E-01
 -1       142 2.54097E-01
 -1       143 2.54097E-01
 -1       144 2.54097E-01
 -1       145 6.38194E-01
 -1       146 2.54097E-01
 -1       147 6.38194E-01
 -1       148 3.71146E-01
 -1       149 3.71146E-01
 -1       150 3.71146E-01
 -1       151 3.71146E-01
 -1       152 3.12622E-01
 -1       153 3.71146E-01
 -1       154 3.12622E-01
 -1       155 5.08370E-01
 -1       156 5.08370E-01
 -1       157 5.08370E-01
 -1       158 5.08370E-01
 -1       159 4.39758E-01
 -1       160 5.08370E-01
 -1       161 4.39758E-01
 -1       162 6.83589E-01
 -1       163 6.83589E-01
 -1       164 6.83589E-01
 -1       165 6.83589E-01
 -1       166 5.95979E-01
 -1       167 6.83589E-01
 -1       168 5.95979E-01
 -1       169 9.27434E-01
 -1       170 9.27434E-01
 -1       171 9.27434E-01
 -1       172 9.27434E-01
 -1       173 8.05512E-01
 -1       174 9.27434E-01
 -1       175 8.05512E-01
 -1       176 1.31371E+00
 -1       177 1.31371E+00
 -1       178 1.31371E+00
 -1       179 1.31371E+00
 -1       180 1.12057E+00
 -1       181 1.31371E+00
 -1       182 1.12057E+00
 -1       183 5.36074E+00
 -1       184 5.36074E+00
 -1       185 5.36074E+00
 -1       186 5.36074E+00
 -1       187 3.33723E+00
 -1       188 5.36074E+00
 -1       189 3.33723E+00
 -1       190 1.83496E+01
 -1       191 1.83496E+01
 -1       192 1.83496E+01
 -1       193 1.83496E+01
 -1       194 1.18552E+01
 -1       195 1.83496E+01
 -1       196 1.18552E+01
 -1       197 1.83496E+01
 -1       198 1.83496E+01
 -1       199 1.83496E+01
 -1       200 1.83496E+01
 -1       201 1.83496E+01
 -1       202 1.83496E+01
 -1       203 1.83496E+01
 -1       204 1.02229E+00
 -1       205 1.02229E+00
 -1       206 1.02229E+00
 -1       207 1.02229E+00
 -1       208 1.02229E+00
 -1       209 1.02229E+00
 -1       210 1.02229E+00
 -1       211 1.02229E+00
 -1       212 1.02229E+00
 -1       213 1.02229E+00
 -1       214 1.02229E+00
 -1       215 1.02229E+00
 -1       216 2.54097E-01
 -1       217 2.54097E-01
 -1       218 6.38194E-01
 -1       219 2.54097E-01
 -1       220 2.54097E-01
 -1       221 6.38194E-01
 -1       222 2.54097E-01
 -1       223 3.71146E-01
 -1       224 3.71146E-01
 -1       225 3.12622E-01
 -1       226 3.71146E-01
 -1       227 3.71146E-01
 -1       228 3.12622E-01
 -1       229 3.71146E-01
 -1       230 5.08370E-01
 -1       231 5.08370E-01
 -1       232 4.39758E-01
 -1       233 5.08370E-01
 -1       234 5.08370E-01
 -1       235 4.39758E-01
 -1       236 5.08370E-01
 -1       237 6.83589E-01
 -1       238 6.83589E-01
 -1       239 5.95979E-01
 -1       240 6.83589E-01
 -1       241 6.83589E-01
 -1       242 5.95979E-01
 -1       243 6.83589E-01
 -1       244 9.27434E-01
 -1       245 9.27434E-01
 -1       246 8.05512E-01
 -1       247 9.27434E-01
 -1       248 9.27434E-01
 -1       249 8.05512E-01
 -1       250 9.27434E-01
 -1       251 1.31371E+00
 -1       252 1.31371E+00
 -1       253 1.12057E+00
 -1       254 1.31371E+00
 -1       255 1.31371E+00
 -1       256 1.12057E+00
 -1       257 1.31371E+00
 -1       258 5.36074E+00
 -1       259 5.36074E+00
 -1       260 3.33723E+00
 -1       261 5.36074E+00
 -1       262 5.36074E+00
 -1       263 3.33723E+00
 -1       264 5.36074E+00
 -1       265 1.83496E+01
 -1       266 1.83496E+01
 -1       267 1.18552E+01
 -1       268 1.83496E+01
 -1       269 1.83496E+01
 -1       270 1.18552E+01
 -1       271 1.83496E+01
 -1       272 1.83496E+01
 -1       273 1.83496E+01
 -1       274 1.83496E+01
 -1       275 1.83496E+01
 -1       276 1.83496E+01
 -1       277 1.83496E+01
 -1       278 1.83496E+01
 -1       279 1.02229E+00
 -1       280 1.02229E+00
 -1       281 1.02229E+00
 -1       282 1.02229E+00
 -1       283 1.02229E+00
 -1       284 1.02229E+00
 -1       285 1.02229E+00
 -1       286 2.54097E-01
 -1       287 2.54097E-01
 -1       288 6.38194E-01
 -1       289 2.54097E-01
 -1       290 3.71146E-01
 -1       291 3.71146E-01
 -1       292 3.12622E-01
 -1       293 3.71146E-01
 -1       294 5.08370E-01
 -1       295 5.08370E-01
 -1       296 4.39758E-01
 -1       297 5.08370E-01
 -1       298 6.83589E-01
 -1       299 6.83589E-01
 -1       300 5.95979E-01
 -1       301 6.83589E-01
 -1       302 9.27434E-01
 -1       303 9.27434E-01
 -1       304 8.05512E-01
 -1       305 9.27434E-01
 -1       306 1.31371E+00
 -1       307 1.31371E+00
 -1       308 1.12057E+00
 -1       309 1.31371E+00
 -1       310 5.36074E+00
 -1       311 5.36074E+00
 -1       312 3.33723E+00
 -1       313 5.36074E+00
 -1       314 1.83496E+01
 -1       315 1.83496E+01
 -1       316 1.18552E+01
 -1       317 1.83496E+01
 -1       318 1.83496E+01
 -1       319 1.83496E+01
 -1       320 1.83496E+01
 -1       321 1.83496E+01
 -3
    1PSTEP                        25           1           1          
    1PGM                1.000000E+00                                  
    1PGK                6.941641E+09                                  
    1PHID                         -1                                  
    1PSUBC                         0                                  
    1PMODE                         7                                  
  100CL  107 13260.23419         321                     2    7MODAL      1
 -4  DISP        4    1
 -5  D1          1    2    1    0
 -5  D2          1    2    2    0
 -5  D3          1    2    3    0
 -5  ALL         1    2    0    0    1ALL
 -1         1 0.00000E+00 0.00000E+00 0.00000E+00
 -1         2 0.00000E+00 0.00000E+00 0.00000E+00
 -1         3 4.67914E-01-1.75911E+00-2.72014E-01
 -1         4 4.10031E-01-1.75677E+00 7.52236E-01
 -1         5 0.00000E+00 0.00000E+00 0.00000E+00
 -1         6 0.00000E+00 0.00000E+00 0.00000E+00
 -1         7 4.63607E-01-1.78407E+00-2.70894E-13
 -1         8 4.57120E-01-1.80065E+00 1.04678E+00
 -1         9 0.00000E+00 0.00000E+00 0.00000E+00
 -1        10 1.84486E-01-5.63306E-01-1.62157E-01
 -1        11 4.43578E-01-1.74217E+00 1.76135E-01
 -1        12 9.99237E-03-6.00800E-01 4.65374E-01
 -1        13 0.00000E+00 0.00000E+00 0.00000E+00
 -1        14 0.00000E+00 0.00000E+00 0.00000E+00
 -1        15 4.61288E-01-1.78579E+00-1.22053E-01
 -1        16 4.30341E-01-1.79383E+00 9.26017E-01
 -1        17 0.00000E+00 0.00000E+00 0.00000E+00
 -1        18 1.62799E-01-6.26492E-01-1.18280E-13
 -1        19 4.64054E-01-1.77515E+00 4.69690E-01
 -1        20 1.46380E-01-7.09948E-01 6.24022E-01
 -1        21 1.09625E+00-4.32489E+00-2.12832E-01
 -1        22 1.22006E+00-4.30136E+00 5.96547E-01
 -1        23 1.11035E+00-4.27289E+00-5.41567E-13
 -1        24 1.12386E+00-4.21863E+00 8.19029E-01
 -1        25 8.04075E-01-3.11809E+00-2.75845E-01
 -1        26 1.15204E+00-4.33023E+00 1.58817E-01
 -1        27 8.42550E-01-3.12037E+00 7.71761E-01
 -1        28 1.10795E+00-4.28312E+00-9.98952E-02
 -1        29 1.17613E+00-4.24248E+00 7.22858E-01
 -1        30 8.06402E-01-3.10323E+00-4.07452E-13
 -1        31 1.11301E+00-4.26367E+00 3.84421E-01
 -1        32 8.10263E-01-3.09428E+00 1.06152E+00
 -1        33 1.31413E+00-5.22736E+00 5.29552E-02
 -1        34 1.51274E+00-5.18998E+00-1.51412E-01
 -1        35 1.33653E+00-5.14329E+00-8.04024E-13
 -1        36 1.35838E+00-5.05708E+00-2.03784E-01
 -1        37 1.28125E+00-5.07682E+00-9.34017E-02
 -1        38 1.40650E+00-5.23115E+00-5.09648E-02
 -1        39 1.45489E+00-5.04803E+00 2.60447E-01
 -1        40 1.33126E+00-5.16348E+00 2.68447E-02
 -1        41 1.44130E+00-5.10052E+00-1.76789E-01
 -1        42 1.30007E+00-5.00300E+00-6.72129E-13
 -1        43 1.34177E+00-5.12301E+00-1.03305E-01
 -1        44 1.31925E+00-4.93057E+00 3.59433E-01
 -1        45 8.87952E-01-3.53561E+00 3.28605E-01
 -1        46 1.02626E+00-3.50977E+00-9.27817E-01
 -1        47 9.03554E-01-3.47710E+00-1.05072E-12
 -1        48 9.18758E-01-3.41706E+00-1.26455E+00
 -1        49 1.17880E+00-4.68853E+00 2.01667E-01
 -1        50 9.51955E-01-3.53896E+00-2.70847E-01
 -1        51 1.35908E+00-4.65790E+00-5.69961E-01
 -1        52 9.00069E-01-3.49071E+00 1.58546E-01
 -1        53 9.76632E-01-3.44679E+00-1.10941E+00
 -1        54 1.19830E+00-4.61136E+00-9.29701E-13
 -1        55 9.07091E-01-3.46369E+00-6.10125E-01
 -1        56 1.21836E+00-4.53631E+00-7.76063E-01
 -1        57 1.48405E-02-4.42608E-02 4.30633E-01
 -1        58 4.12978E-04-4.73812E-02-1.21490E+00
 -1        59 1.31732E-02-5.06936E-02-1.27809E-12
 -1        60 1.15016E-02-5.71098E-02-1.65718E+00
 -1        61 4.80500E-01-1.90516E+00 4.07210E-01
 -1        62 8.05492E-03-4.41843E-02-3.51043E-01
 -1        63 5.47178E-01-1.89410E+00-1.14864E+00
 -1        64 1.35813E-02-4.91044E-02 2.07077E-01
 -1        65 5.52870E-03-5.38787E-02-1.45484E+00
 -1        66 4.87686E-01-1.87674E+00-1.16551E-12
 -1        67 1.27602E-02-5.22641E-02-7.96884E-01
 -1        68 4.95072E-01-1.84908E+00-1.56704E+00
 -1        69-8.14856E-01 3.28122E+00 2.83929E-01
 -1        70-9.83172E-01 3.24869E+00-8.00264E-01
 -1        71-8.33933E-01 3.20918E+00-1.47593E-12
 -1        72-8.52653E-01 3.13576E+00-1.09263E+00
 -1        73-4.39990E-01 1.77532E+00 3.85082E-01
 -1        74-8.93175E-01 3.28431E+00-2.28549E-01
 -1        75-5.35897E-01 1.75784E+00-1.08552E+00
 -1        76-8.29497E-01 3.22637E+00 1.36024E-01
 -1        77-9.22863E-01 3.17254E+00-9.59987E-01
 -1        78-4.50557E-01 1.73385E+00-1.38445E-12
 -1        79-8.38400E-01 3.19211E+00-5.23452E-01
 -1        80-4.61332E-01 1.69319E+00-1.48189E+00
 -1        81-1.10823E+00 4.46962E+00-4.23949E-02
 -1        82-1.34514E+00 4.42371E+00 1.21509E-01
 -1        83-1.13509E+00 4.36811E+00-1.63689E-12
 -1        84-1.16147E+00 4.26474E+00 1.63146E-01
 -1        85-1.05101E+00 4.22686E+00 1.33165E-01
 -1        86-1.21850E+00 4.47389E+00 4.19549E-02
 -1        87-1.26437E+00 4.18841E+00-3.74253E-01
 -1        88-1.12883E+00 4.39236E+00-2.16880E-02
 -1        89-1.26027E+00 4.31654E+00 1.41272E-01
 -1        90-1.07446E+00 4.13477E+00-1.56142E-12
 -1        91-1.14139E+00 4.34403E+00 8.34607E-02
 -1        92-1.09839E+00 4.04456E+00-5.12453E-01
 -1        93-6.47861E-01 2.65798E+00-3.83742E-01
 -1        94-8.37113E-01 2.62025E+00 1.08671E+00
 -1        95-6.69426E-01 2.57611E+00-1.75926E-12
 -1        96-6.90700E-01 2.49313E+00 1.47673E+00
 -1        97-9.70691E-01 3.92686E+00-2.21647E-01
 -1        98-7.36200E-01 2.66069E+00 3.28332E-01
 -1        99-1.19389E+00 3.88591E+00 6.27839E-01
 -1       100-6.64312E-01 2.59591E+00-1.87263E-01
 -1       101-7.69464E-01 2.53484E+00 1.29246E+00
 -1       102-9.95322E-01 3.83024E+00-1.70630E-12
 -1       103-6.74570E-01 2.55644E+00 7.20632E-01
 -1       104-1.02043E+00 3.73546E+00 8.52950E-01
 -1       105 4.07563E-01-1.50169E+00-5.87541E-01
 -1       106 3.34909E-01-1.51921E+00 1.66583E+00
 -1       107 3.99048E-01-1.53563E+00-1.83742E-12
 -1       108 3.90228E-01-1.56840E+00 2.26100E+00
 -1       109-1.72421E-01 7.80325E-01-5.06654E-01
 -1       110 3.72687E-01-1.50282E+00 5.12050E-01
 -1       111-3.05568E-01 7.53082E-01 1.43449E+00
 -1       112 4.01379E-01-1.52663E+00-2.88355E-01
 -1       113 3.60505E-01-1.55125E+00 1.97590E+00
 -1       114-1.87545E-01 7.21719E-01-1.80367E-12
 -1       115 3.96709E-01-1.54460E+00 1.10966E+00
 -1       116-2.02774E-01 6.63517E-01 1.94973E+00
 -1       117 1.67391E+00-6.43306E+00-6.27621E-01
 -1       118 1.67573E+00-6.43991E+00 1.78214E+00
 -1       119 1.67290E+00-6.43772E+00-1.86384E-12
 -1       120 1.67169E+00-6.44163E+00 2.41524E+00
 -1       121 1.03824E+00-3.96775E+00-6.20744E-01
 -1       122 1.67427E+00-6.43772E+00 5.71674E-01
 -1       123 1.01148E+00-3.97743E+00 1.76219E+00
 -1       124 1.67383E+00-6.43471E+00-3.12899E-01
 -1       125 1.67347E+00-6.43964E+00 2.10203E+00
 -1       126 1.03454E+00-3.98115E+00-1.85896E-12
 -1       127 1.67211E+00-6.44130E+00 1.20411E+00
 -1       128 1.03105E+00-3.99538E+00 2.38878E+00
 -1       129 0.00000E+00 0.00000E+00 0.00000E+00
 -1       130 0.00000E+00 0.00000E+00 0.00000E+00
 -1       131 4.67914E-01-1.75911E+00 2.72014E-01
 -1       132 5.09723E-01-1.78267E+00 1.28045E+00
 -1       133 0.00000E+00 0.00000E+00 0.00000E+00
 -1       134 0.00000E+00 0.00000E+00 0.00000E+00
 -1       135 4.61288E-01-1.78579E+00 1.22053E-01
 -1       136 4.78334E-01-1.80640E+00 1.15830E+00
 -1       137 0.00000E+00 0.00000E+00 0.00000E+00
 -1       138 1.84486E-01-5.63306E-01 1.62157E-01
 -1       139 4.91973E-01-1.75464E+00 7.17763E-01
 -1       140 3.23418E-01-6.82246E-01 7.92154E-01
 -1       141 1.09625E+00-4.32489E+00 2.12832E-01
 -1       142 1.00062E+00-4.24434E+00 1.01543E+00
 -1       143 1.10795E+00-4.28312E+00 9.98952E-02
 -1       144 1.06700E+00-4.21484E+00 9.16069E-01
 -1       145 8.04075E-01-3.11809E+00 2.75845E-01
 -1       146 1.04567E+00-4.30187E+00 5.84706E-01
 -1       147 7.74567E-01-3.10270E+00 1.31368E+00
 -1       148 1.31413E+00-5.22736E+00-5.29552E-02
 -1       149 1.16082E+00-5.09853E+00-2.57731E-01
 -1       150 1.33126E+00-5.16348E+00-2.68447E-02
 -1       151 1.26555E+00-5.05533E+00-2.30799E-01
 -1       152 1.28125E+00-5.07682E+00 9.34017E-02
 -1       153 1.23259E+00-5.18548E+00-1.56880E-01
 -1       154 1.14793E+00-4.96826E+00 4.43329E-01
 -1       155 8.87952E-01-3.53561E+00-3.28605E-01
 -1       156 7.81290E-01-3.44611E+00-1.57932E+00
 -1       157 9.00069E-01-3.49071E+00-1.58546E-01
 -1       158 8.54371E-01-3.41542E+00-1.42105E+00
 -1       159 1.17880E+00-4.68853E+00-2.01667E-01
 -1       160 8.31251E-01-3.50719E+00-9.28408E-01
 -1       161 1.04018E+00-4.57503E+00-9.70180E-01
 -1       162 1.48405E-02-4.42608E-02-4.30633E-01
 -1       163 2.59353E-02-5.40133E-02-2.06799E+00
 -1       164 1.35813E-02-4.91044E-02-2.07077E-01
 -1       165 1.82968E-02-5.71927E-02-1.86120E+00
 -1       166 4.80500E-01-1.90516E+00-4.07210E-01
 -1       167 2.08080E-02-4.75022E-02-1.21275E+00
 -1       168 4.29254E-01-1.86345E+00-1.95521E+00
 -1       169-8.14856E-01 3.28122E+00-2.83929E-01
 -1       170-6.85103E-01 3.17124E+00-1.36220E+00
 -1       171-8.29497E-01 3.22637E+00-1.36024E-01
 -1       172-7.73996E-01 3.13421E+00-1.22641E+00
 -1       173-4.39990E-01 1.77532E+00-3.85082E-01
 -1       174-7.45690E-01 3.24562E+00-7.96703E-01
 -1       175-3.66228E-01 1.71375E+00-1.84775E+00
 -1       176-1.10823E+00 4.46962E+00 4.23949E-02
 -1       177-9.25608E-01 4.31469E+00 2.06830E-01
 -1       178-1.12883E+00 4.39236E+00 2.16880E-02
 -1       179-1.05073E+00 4.26258E+00 1.85117E-01
 -1       180-1.05101E+00 4.22686E+00-1.33165E-01
 -1       181-1.01086E+00 4.41944E+00 1.26770E-01
 -1       182-8.86929E-01 4.09033E+00-6.37049E-01
 -1       183-6.47861E-01 2.65798E+00 3.83742E-01
 -1       184-5.02049E-01 2.53318E+00 1.84978E+00
 -1       185-6.64312E-01 2.59591E+00 1.87263E-01
 -1       186-6.02036E-01 2.49164E+00 1.66265E+00
 -1       187-9.70691E-01 3.92686E+00 2.21647E-01
 -1       188-5.69975E-01 2.61718E+00 1.09624E+00
 -1       189-7.99025E-01 3.78330E+00 1.06870E+00
 -1       190 4.07563E-01-1.50169E+00 5.87541E-01
 -1       191 4.63321E-01-1.55258E+00 2.83555E+00
 -1       192 4.01379E-01-1.52663E+00 2.88355E-01
 -1       193 4.24885E-01-1.56821E+00 2.54747E+00
 -1       194-1.72421E-01 7.80325E-01 5.06654E-01
 -1       195 4.37932E-01-1.51955E+00 1.68749E+00
 -1       196-6.99088E-02 6.91844E-01 2.44178E+00
 -1       197 1.67391E+00-6.43306E+00 6.27621E-01
 -1       198 1.67087E+00-6.43865E+00 3.03353E+00
 -1       199 1.67383E+00-6.43471E+00 3.12899E-01
 -1       200 1.67225E+00-6.43915E+00 2.72509E+00
 -1       201 1.03824E+00-3.96775E+00 6.20744E-01
 -1       202 1.67240E+00-6.43741E+00 1.82604E+00
 -1       203 1.05885E+00-3.98974E+00 2.99958E+00
 -1       204 0.00000E+00 0.00000E+00 0.00000E+00
 -1       205 5.09723E-01-1.78267E+00-1.28045E+00
 -1       206 0.00000E+00 0.00000E+00 0.00000E+00
 -1       207 4.57120E-01-1.80065E+00-1.04678E+00
 -1       208 0.00000E+00 0.00000E+00 0.00000E+00
 -1       209 3.23418E-01-6.82246E-01-7.92154E-01
 -1       210 4.91973E-01-1.75464E+00-7.17763E-01
 -1       211 0.00000E+00 0.00000E+00 0.00000E+00
 -1       212 4.78334E-01-1.80640E+00-1.15830E+00
 -1       213 0.00000E+00 0.00000E+00 0.00000E+00
 -1       214 1.46380E-01-7.09948E-01-6.24022E-01
 -1       215 4.64054E-01-1.77515E+00-4.69690E-01
 -1       216 1.00062E+00-4.24434E+00-1.01543E+00
 -1       217 1.12386E+00-4.21863E+00-8.19029E-01
 -1       218 7.74567E-01-3.10270E+00-1.31368E+00
 -1       219 1.04567E+00-4.30187E+00-5.84706E-01
 -1       220 1.06700E+00-4.21484E+00-9.16069E-01
 -1       221 8.10263E-01-3.09428E+00-1.06152E+00
 -1       222 1.11301E+00-4.26367E+00-3.84421E-01
 -1       223 1.16082E+00-5.09853E+00 2.57731E-01
 -1       224 1.35838E+00-5.05708E+00 2.03784E-01
 -1       225 1.14793E+00-4.96826E+00-4.43329E-01
 -1       226 1.23259E+00-5.18548E+00 1.56880E-01
 -1       227 1.26555E+00-5.05533E+00 2.30799E-01
 -1       228 1.31925E+00-4.93057E+00-3.59433E-01
 -1       229 1.34177E+00-5.12301E+00 1.03305E-01
 -1       230 7.81290E-01-3.44611E+00 1.57932E+00
 -1       231 9.18758E-01-3.41706E+00 1.26455E+00
 -1       232 1.04018E+00-4.57503E+00 9.70180E-01
 -1       233 8.31251E-01-3.50719E+00 9.28408E-01
 -1       234 8.54371E-01-3.41542E+00 1.42105E+00
 -1       235 1.21836E+00-4.53631E+00 7.76063E-01
 -1       236 9.07091E-01-3.46369E+00 6.10125E-01
 -1       237 2.59353E-02-5.40133E-02 2.06799E+00
 -1       238 1.15016E-02-5.71098E-02 1.65718E+00
 -1       239 4.29254E-01-1.86345E+00 1.95521E+00
 -1       240 2.08080E-02-4.75022E-02 1.21275E+00
 -1       241 1.82968E-02-5.71927E-02 1.86120E+00
 -1       242 4.95072E-01-1.84908E+00 1.56704E+00
 -1       243 1.27602E-02-5.22641E-02 7.96884E-01
 -1       244-6.85103E-01 3.17124E+00 1.36220E+00
 -1       245-8.52653E-01 3.13576E+00 1.09263E+00
 -1       246-3.66228E-01 1.71375E+00 1.84775E+00
 -1       247-7.45690E-01 3.24562E+00 7.96703E-01
 -1       248-7.73996E-01 3.13421E+00 1.22641E+00
 -1       249-4.61332E-01 1.69319E+00 1.48189E+00
 -1       250-8.38400E-01 3.19211E+00 5.23452E-01
 -1       251-9.25608E-01 4.31469E+00-2.06830E-01
 -1       252-1.16147E+00 4.26474E+00-1.63146E-01
 -1       253-8.86929E-01 4.09033E+00 6.37049E-01
 -1       254-1.01086E+00 4.41944E+00-1.26770E-01
 -1       255-1.05073E+00 4.26258E+00-1.85117E-01
 -1       256-1.09839E+00 4.04456E+00 5.12453E-01
 -1       257-1.14139E+00 4.34403E+00-8.34607E-02
 -1       258-5.02049E-01 2.53318E+00-1.84978E+00
 -1       259-6.90700E-01 2.49313E+00-1.47673E+00
 -1       260-7.99025E-01 3.78330E+00-1.06870E+00
 -1       261-5.69975E-01 2.61718E+00-1.09624E+00
 -1       262-6.02036E-01 2.49164E+00-1.66265E+00
 -1       263-1.02043E+00 3.73546E+00-8.52950E-01
 -1       264-6.74570E-01 2.55644E+00-7.20632E-01
 -1       265 4.63321E-01-1.55258E+00-2.83555E+00
 -1       266 3.90228E-01-1.56840E+00-2.26100E+00
 -1       267-6.99088E-02 6.91844E-01-2.44178E+00
 -1       268 4.37932E-01-1.51955E+00-1.68749E+00
 -1       269 4.24885E-01-1.56821E+00-2.54747E+00
 -1       270-2.02774E-01 6.63517E-01-1.94973E+00
 -1       271 3.96709E-01-1.54460E+00-1.10966E+00
 -1       272 1.67087E+00-6.43865E+00-3.03353E+00
 -1       273 1.67169E+00-6.44163E+00-2.41524E+00
 -1       274 1.05885E+00-3.98974E+00-2.99958E+00
 -1       275 1.67240E+00-6.43741E+00-1.82604E+00
 -1       276 1.67225E+00-6.43915E+00-2.72509E+00
 -1       277 1.03105E+00-3.99538E+00-2.38878E+00
 -1       278 1.67211E+00-6.44130E+00-1.20411E+00
 -1       279 0.00000E+00 0.00000E+00 0.00000E+00
 -1       280 4.10031E-01-1.75677E+00-7.52236E-01
 -1       281 0.00000E+00 0.00000E+00 0.00000E+00
 -1       282 4.30341E-01-1.79383E+00-9.26017E-01
 -1       283 0.00000E+00 0.00000E+00 0.00000E+00
 -1       284 9.99237E-03-6.00800E-01-4.65374E-01
 -1       285 4.43578E-01-1.74217E+00-1.76135E-01
 -1       286 1.22006E+00-4.30136E+00-5.96547E-01
 -1       287 1.17613E+00-4.24248E+00-7.22858E-01
 -1       288 8.42550E-01-3.12037E+00-7.71761E-01
 -1       289 1.15204E+00-4.33023E+00-1.58817E-01
 -1       290 1.51274E+00-5.18998E+00 1.51412E-01
 -1       291 1.44130E+00-5.10052E+00 1.76789E-01
 -1       292 1.45489E+00-5.04803E+00-2.60447E-01
 -1       293 1.40650E+00-5.23115E+00 5.09648E-02
 -1       294 1.02626E+00-3.50977E+00 9.27817E-01
 -1       295 9.76632E-01-3.44679E+00 1.10941E+00
 -1       296 1.35908E+00-4.65790E+00 5.69961E-01
 -1       297 9.51955E-01-3.53896E+00 2.70847E-01
 -1       298 4.12978E-04-4.73812E-02 1.21490E+00
 -1       299 5.52870E-03-5.38787E-02 1.45484E+00
 -1       300 5.47178E-01-1.89410E+00 1.14864E+00
 -1       301 8.05492E-03-4.41843E-02 3.51043E-01
 -1       302-9.83172E-01 3.24869E+00 8.00264E-01
 -1       303-9.22863E-01 3.17254E+00 9.59987E-01
 -1       304-5.35897E-01 1.75784E+00 1.08552E+00
 -1       305-8.93175E-01 3.28431E+00 2.28549E-01
 -1       306-1.34514E+00 4.42371E+00-1.21509E-01
 -1       307-1.26027E+00 4.31654E+00-1.41272E-01
 -1       308-1.26437E+00 4.18841E+00 3.74253E-01
 -1       309-1.21850E+00 4.47389E+00-4.19549E-02
 -1       310-8.37113E-01 2.62025E+00-1.08671E+00
 -1       311-7.69464E-01 2.53484E+00-1.29246E+00
 -1       312-1.19389E+00 3.88591E+00-6.27839E-01
 -1       313-7.36200E-01 2.66069E+00-3.28332E-01
 -1       314 3.34909E-01-1.51921E+00-1.66583E+00
 -1       315 3.60505E-01-1.55125E+00-1.97590E+00
 -1       316-3.05568E-01 7.53082E-01-1.43449E+00
 -1       317 3.72687E-01-1.50282E+00-5.12050E-01
 -1       318 1.67573E+00-6.43991E+00-1.78214E+00
 -1       319 1.67347E+00-6.43964E+00-2.10203E+00
 -1       320 1.01148E+00-3.97743E+00-1.76219E+00
 -1       321 1.67427E+00-6.43772E+00-5.71674E-01
 -3
    1PSTEP                        26           1           1          
    1PGM                1.000000E+00                                  
    1PGK                6.941641E+09                                  
    1PHID                         -1                                  
    1PSUBC                         0                                  
    1PMODE                         7                                  
  100CL  107 13260.23419         321                     2    7MODAL      1
 -4  STRESS      6    1
 -5  SXX         1    4    1    1
 -5  SYY         1    4    2    2
 -5  SZZ         1    4    3    3
 -5  SXY         1    4    1    2
 -5  SYZ         1    4    2    3
 -5  SZX         1    4    3    1
 -1         1 1.34391E+13 1.34391E+13 3.13578E+13 1.08529E+05-5.22100E+12-2.98902E+12
 -1         2-4.56285E+12-4.56285E+12-1.06466E+13 1.24251E+05-3.99070E+12 2.18098E+12
 -1         3 8.00388E+10-2.49711E+11-2.59100E+12 5.62640E+11-1.13416E+13 2.85826E+11
 -1         4 4.07634E+11-4.51208E+11 6.59130E+12 4.53220E+11-2.65015E+12 2.05086E+12
 -1         5 1.75590E+13 1.75590E+13 4.09706E+13-3.22877E+04-8.39294E+12 1.03702E+12
 -1         6-2.45970E+00-2.46141E+00-5.72468E+00 5.07057E-04-5.83048E+12 1.51510E+12
 -1         7-3.20595E-01-6.51550E-01-6.75150E+00-8.90503E-02-9.31308E+12 2.42009E+12
 -1         8 9.60949E+11-3.08009E+11 9.97079E+12-1.46207E+11-1.09993E+12 2.94720E+12
 -1         9 3.66310E+12 3.66310E+12 8.54750E+12-8.63856E+06-4.47891E+12-3.66721E+11
 -1        10-5.88597E+11-2.78121E+11-5.97245E+12-1.02855E+12-6.02939E+12 7.09080E+11
 -1        11 7.42808E+11 9.82077E+11 2.20285E+12 5.45083E+11-7.09045E+12 9.77718E+11
 -1        12 9.54841E+10 2.06257E+12 1.64448E+13-7.15885E+11-1.98549E+12-1.07430E+11
 -1        13 1.58204E+13 1.58204E+13 3.69144E+13-3.06727E+06-6.92953E+12-1.00202E+12
 -1        14-2.11239E+12-2.11239E+12-4.92901E+12-5.71827E+06-5.02574E+12 1.81203E+12
 -1        15-3.09058E+11-2.60599E+11-1.37255E+12 3.90839E+10-1.00928E+13 1.37185E+12
 -1        16 3.60892E+11-5.08377E+11 8.30393E+12-5.90921E+10-1.60184E+12 2.61269E+12
 -1        17 8.12901E+12 8.12901E+12 1.89680E+13 1.48594E+06-6.97314E+12 1.30598E+12
 -1        18 1.67114E-01 8.42285E-02-5.61374E+00-2.07825E-02-6.06456E+12 1.57593E+12
 -1        19 1.00285E+12 1.18933E+12 5.28191E+12-1.01563E+10-5.27920E+12 2.62269E+12
 -1        20 1.07028E+12 2.26507E+12 2.29834E+13 2.67277E+11-2.72871E+12 1.56679E+12
 -1        21-8.06589E+10 6.47279E+10 4.24560E+12-1.94672E+11-6.63281E+12 4.31414E+11
 -1        22-1.92509E+11 2.09498E+11-1.19816E+13-7.34746E+10-2.06464E+12 8.70732E+11
 -1        23-6.64818E-01-7.05078E-01-5.92734E+00-3.56627E-01-5.51334E+12 1.43269E+12
 -1        24-2.49089E+11 3.10395E+11-1.63381E+13 5.05871E+10-1.66018E+12 1.72359E+12
 -1        25 3.43044E+11 1.33830E+11 1.38591E+12 2.27899E+11-6.86693E+12-4.23814E+10
 -1        26-7.54291E+10-6.04190E+09-3.23936E+12-1.50784E+11-4.53446E+12 4.76132E+11
 -1        27-1.57382E+11-1.12721E+12-3.65491E+12 1.71264E+11-4.95418E+11 5.18497E+11
 -1        28 1.54029E+10 2.92732E+10 1.99604E+12-1.25987E+10-5.81542E+12 9.74137E+11
 -1        29-2.11616E+11 2.55631E+11-1.44287E+13 9.48424E+10-1.57055E+12 1.45282E+12
 -1        30-1.42941E-01-3.16132E-01-5.81844E+00-8.50525E-02-5.50012E+12 1.42925E+12
 -1        31-1.12651E+11-5.92740E+10-7.68125E+12 3.27388E+09-3.74872E+12 1.51119E+12
 -1        32-5.15009E+11-1.32012E+12-5.33332E+12-5.92215E+10 1.63094E+11 1.78443E+12
 -1        33 1.56424E+11 1.73208E+11 6.80658E+12 6.37463E+09-3.25551E+11 1.79379E+10
 -1        34-3.73208E+11-5.06007E+11-1.91348E+13 2.28560E+10-8.38438E+10 2.86761E+10
 -1        35-2.14260E-01 2.71900E-01-5.45506E+00-7.91950E-02-2.70526E+11 7.02987E+10
 -1        36-6.66549E+11-6.01956E+11-2.61934E+13-1.65650E+09-6.90295E+10 8.45972E+10
 -1        37-2.38386E+09 7.84063E+09 5.58331E+12-1.55328E+10-2.66687E+12 2.84723E+10
 -1        38 1.10635E+11-1.85555E+10-5.40562E+12 1.22835E+10-2.02918E+11 2.19672E+10
 -1        39 1.01856E+11-1.52111E+11-1.57226E+13 1.96539E+10-3.37798E+11 2.52004E+11
 -1        40 4.78849E+10 4.34404E+10 3.25252E+12 2.81353E+10-2.92363E+11 4.27661E+10
 -1        41-6.12058E+11-6.37523E+11-2.30147E+13 3.82367E+10-7.29269E+10 6.24899E+10
 -1        42-3.13328E-01-2.93182E-01-5.69501E+00-1.86778E-01-2.08033E+12 5.40591E+11
 -1        43-1.67169E+11-1.84273E+11-1.25165E+13-7.31120E+09-1.64575E+11 7.59731E+10
 -1        44-3.01727E+10 9.17369E+09-2.14859E+13 4.03632E+09-1.09568E+11 6.93009E+11
 -1        45 6.58570E+10 1.03214E+11 4.71786E+12-3.48568E+10 5.53506E+12-3.52917E+11
 -1        46-2.31402E+11-2.34334E+11-1.32776E+13-4.93937E+09 1.72354E+12-7.13852E+11
 -1        47 5.59296E-01-1.86554E-01-4.80742E+00 1.11269E-01 4.61240E+12-1.19857E+12
 -1        48-3.97191E+11-2.53434E+11-1.81555E+13 9.05783E+09 1.35811E+12-1.43833E+12
 -1        49 7.67836E+10 3.41361E+10 5.82208E+12 5.61545E+10 2.04910E+12-1.03879E+10
 -1        50 2.41093E+10-4.53187E+10-3.79233E+12-2.42108E+10 3.75560E+12-3.96965E+11
 -1        51 5.47095E+10-3.61291E+11-1.63969E+13 5.80870E+10 2.33233E+11-1.98906E+11
 -1        52 3.34224E+10 3.26995E+10 2.26317E+12 1.35982E+10 4.87951E+12-8.01472E+11
 -1        53-3.53994E+11-2.83544E+11-1.59467E+13 3.67520E+10 1.32086E+12-1.21156E+12
 -1        54 2.57738E-01-8.11768E-03-5.10886E+00 2.42834E-02 1.59137E+12-4.13532E+11
 -1        55-1.25836E+11-1.28618E+11-8.70922E+12-3.53362E+09 3.08426E+12-1.26798E+12
 -1        56-1.31364E+11-2.95482E+11-2.24048E+13-1.45922E+10 3.99754E+10-5.32476E+11
 -1        57 5.39684E+09 3.79106E+09-4.57514E+11 3.17350E+09 7.91762E+12-5.03932E+11
 -1        58-7.33792E+09-1.67968E+10 1.30471E+12 1.96114E+09 2.46200E+12-1.02170E+12
 -1        59 6.32213E-01 1.06955E+00-4.21413E+00 8.41276E-02 6.60138E+12-1.71543E+12
 -1        60-1.45889E+10-2.07684E+10 1.76063E+12-8.24662E+08 1.93925E+12-2.05746E+12
 -1        61 1.99982E+10 1.05242E+10 2.15180E+12 1.18597E+10 5.26178E+12-2.19120E+10
 -1        62 5.83144E+09 1.84999E+09 4.37211E+11 2.79740E+09 5.37402E+12-5.66900E+11
 -1        63 2.71929E+10-1.14485E+11-6.05517E+12 1.81659E+10 5.75846E+11-4.92427E+11
 -1        64 5.69620E+08 2.95449E+08-2.31831E+11 9.17324E+08 6.97990E+12-1.14779E+12
 -1        65-1.38174E+10-2.13856E+10 1.52777E+12-4.19943E+08 1.88371E+12-1.73053E+12
 -1        66 4.30024E-01 4.46629E-01-4.51434E+00 1.72715E-01 4.10121E+12-1.06574E+12
 -1        67-1.13696E+09-2.19204E+09 8.92141E+11-2.38375E+08 4.41698E+12-1.81379E+12
 -1        68-4.04996E+10-7.69581E+10-8.28064E+12-3.08185E+09 8.43227E+10-1.36732E+12
 -1        69-6.97776E+10-9.71504E+10-5.66370E+12 2.31084E+10 5.71501E+12-3.64468E+11
 -1        70 2.15505E+11 2.40974E+11 1.59775E+13 2.20715E+08 1.77887E+12-7.35897E+11
 -1        71 5.51510E-02-2.57545E-01-3.73315E+00 3.13324E-01 4.76588E+12-1.23846E+12
 -1        72 3.73859E+11 2.68521E+11 2.17953E+13-6.00491E+09 1.40256E+12-1.48510E+12
 -1        73-2.16945E+10-9.40222E+09-3.09019E+12-1.43990E+10 5.32675E+12-2.27392E+10
 -1        74-3.25541E+10 3.67156E+10 4.70884E+12 1.49257E+10 3.87915E+12-4.09780E+11
 -1        75-2.45398E+10 1.16204E+11 8.73517E+12-1.84423E+10 5.81935E+11-4.96681E+11
 -1        76-3.04946E+10-2.91597E+10-2.74351E+12-1.36690E+10 5.03894E+12-8.28763E+11
 -1        77 3.35588E+11 2.94161E+11 1.90975E+13-3.07168E+10 1.36292E+12-1.24738E+12
 -1        78 4.82368E-03-2.36626E-02-4.15138E+00 2.12268E-01 4.15468E+12-1.07963E+12
 -1        79 1.12214E+11 1.17351E+11 1.05577E+13 3.55201E+09 3.18928E+12-1.30941E+12
 -1        80 3.61821E+10 8.34859E+10 1.18918E+13 3.74171E+09 8.75061E+10-1.38420E+12
 -1        81-9.39858E+10-1.31535E+11-7.95909E+12 3.25380E+10 4.69942E+11-3.00037E+10
 -1        82 2.91147E+11 3.23943E+11 2.24589E+13 1.15232E+09 1.44179E+11-5.56678E+10
 -1        83 2.90745E-01-2.18803E-01-3.09958E+00 1.83043E-01 3.94726E+11-1.02573E+11
 -1        84 5.06180E+11 3.61680E+11 3.06285E+13-8.45527E+09 1.15462E+11-1.22118E+11
 -1        85-5.43777E+10-2.37893E+10-6.87644E+12-3.69393E+10 2.40837E+12-1.06509E+10
 -1        86-4.37497E+10 5.03691E+10 6.63993E+12 2.15542E+10 3.17796E+11-3.27888E+10
 -1        87-5.79486E+10 2.83393E+11 1.94254E+13-4.53289E+10 2.59472E+11-2.19603E+11
 -1        88-4.14571E+10-3.96302E+10-3.85950E+12-1.82830E+10 4.15559E+11-6.85825E+10
 -1        89 4.54060E+11 3.95896E+11 2.68322E+13-4.22605E+10 1.11999E+11-9.80436E+10
 -1        90-8.22639E-02-4.77966E-01-3.55200E+00 2.06923E-01 1.88222E+12-4.89110E+11
 -1        91 1.52507E+11 1.59537E+11 1.48523E+13 4.75099E+09 2.63922E+11-1.07987E+11
 -1        92 9.15470E+10 2.09259E+11 2.64622E+13 9.59899E+09 4.09875E+10-6.25837E+11
 -1        93-4.86986E+10-7.32918E+10-6.28276E+12 2.43379E+10-4.40674E+12 2.76950E+11
 -1        94 1.64334E+11 1.69374E+11 1.77640E+13 1.86759E+09-1.35748E+12 5.70495E+11
 -1        95-3.52369E-01-2.73575E-01-2.18624E+00-1.40410E-01-3.66351E+12 9.51995E+11
 -1        96 2.82045E+11 1.87404E+11 2.41776E+13-6.32440E+09-1.06577E+12 1.14513E+12
 -1        97-4.98202E+10-2.06352E+10-7.18962E+12-3.38220E+10-1.56159E+12 4.88610E+09
 -1        98-1.44564E+10 3.20800E+10 5.40494E+12 1.57437E+10-2.98609E+12 3.09049E+11
 -1        99-5.38887E+10 2.65242E+11 2.03332E+13-4.21991E+10-1.73499E+11 1.53973E+11
 -1       100-2.41275E+10-2.39455E+10-3.07568E+12-8.66737E+09-3.87857E+12 6.35696E+11
 -1       101 2.50717E+11 2.04256E+11 2.11298E+13-2.57298E+10-1.03095E+12 9.72802E+11
 -1       102-2.18807E-01-3.82477E-01-2.76791E+00 6.36253E-02-1.20745E+12 3.13766E+11
 -1       103 9.21483E+10 9.28487E+10 1.18360E+13 2.25229E+09-2.44631E+12 1.00788E+12
 -1       104 7.94092E+10 1.91720E+11 2.76674E+13 8.78894E+09-1.88029E+10 4.05793E+11
 -1       105 3.64652E+10 5.43335E+10-2.20379E+12-7.35250E+09-5.28115E+12 3.39350E+11
 -1       106-9.70373E+10-1.28206E+11 6.39373E+12 8.51303E+09-1.67548E+12 7.06301E+11
 -1       107 1.56341E+00 4.37786E-01-6.25042E-01-9.86388E-01-4.39015E+12 1.14082E+12
 -1       108-2.09089E+11-1.40327E+11 8.48072E+12 1.91061E+09-1.30590E+12 1.37235E+12
 -1       109-1.27352E+10-2.35849E+09-4.28442E+12-1.18484E+10-3.82094E+12 1.63355E+10
 -1       110-4.68677E+09-5.22855E+10 2.28274E+12-5.30886E+08-3.59799E+12 3.94234E+11
 -1       111-9.09738E+09 5.24489E+10 1.21748E+13-7.51509E+09-4.53798E+11 3.92949E+11
 -1       112 2.19700E+10 2.21994E+10-1.14117E+12 1.15164E+10-4.65335E+12 7.64730E+11
 -1       113-1.57470E+11-1.37593E+11 7.35754E+12 2.06146E+10-1.28384E+12 1.16621E+12
 -1       114 4.61598E-01 1.73782E-01-1.46748E+00-3.61212E-01-2.96107E+12 7.69460E+11
 -1       115-8.54287E+10-8.45459E+10 4.39151E+12-2.99264E+09-2.94287E+12 1.20921E+12
 -1       116 9.07604E+09 4.90082E+10 1.64875E+13 3.07892E+09-6.28630E+10 9.92904E+11
 -1       117 1.14021E+11 1.35862E+11 3.39010E+11 5.23449E+10-1.24917E+12 1.11662E+11
 -1       118-2.04926E+11-4.27692E+11-9.57233E+11 1.96894E+10-5.25178E+11 1.87682E+11
 -1       119-8.41167E-01-2.41379E+00-8.30315E-01 3.15037E-01-9.83385E+11 2.55541E+11
 -1       120-5.22829E+11-4.38781E+11-1.30459E+12-1.36023E+10-4.29704E+11 3.24608E+11
 -1       121 5.13751E+10 4.52170E+10-8.12729E+11 4.36086E+10-2.35955E+12-3.59808E+09
 -1       122 5.08919E+10-2.28317E+11 1.46883E+11 2.84256E+10-9.60389E+11 9.99811E+10
 -1       123 1.93267E+10-2.22845E+11 2.38146E+12 3.29322E+10-1.94798E+11 1.96759E+11
 -1       124 8.06695E+10 5.02078E+10 7.66600E+10 7.62010E+10-1.01377E+12 2.02610E+11
 -1       125-3.77127E+11-4.81684E+11-1.34138E+12 4.54966E+10-3.69060E+11 2.76457E+11
 -1       126 2.88778E-01-1.25858E+00-8.47399E-01-2.70178E-01-1.79256E+12 4.65813E+11
 -1       127-1.93212E+11-3.10436E+11-2.95007E+11-1.98015E+10-7.79693E+11 2.63438E+11
 -1       128-1.74006E+11-1.97704E+11 3.12758E+12-1.13321E+10 1.38463E+10 6.13150E+11
 -1       129 2.28759E+13 2.28759E+13 5.33768E+13-1.84737E+05-7.64312E+12 6.33188E+12
 -1       130 4.56285E+12 4.56285E+12 1.06466E+13-1.24251E+05-3.99070E+12 2.18098E+12
 -1       131-8.00388E+10 2.49711E+11 2.59100E+12-5.62640E+11-1.13416E+13 2.85826E+11
 -1       132 2.15190E+11-2.89362E+11 1.12196E+13-7.71465E+11-1.89093E+12-8.70820E+11
 -1       133 2.01533E+13 2.01533E+13 4.70249E+13 8.32624E+06-8.13755E+12 3.64349E+12
 -1       134 2.11239E+12 2.11239E+12 4.92901E+12 5.71827E+06-5.02574E+12 1.81203E+12
 -1       135 3.09058E+11 2.60599E+11 1.37255E+12-3.90839E+10-1.00928E+13 1.37185E+12
 -1       136 9.60525E+11-1.68000E+11 1.07344E+13-2.36153E+11-1.28891E+12 9.60797E+11
 -1       137 1.30112E+13 1.30112E+13 3.03599E+13 1.15993E+07-5.68609E+12 4.28203E+12
 -1       138 5.88597E+11 2.78121E+11 5.97245E+12 1.02855E+12-6.02939E+12 7.09080E+11
 -1       139 5.67045E+11 1.32546E+12 7.15012E+12-5.91094E+11-6.66119E+12-2.26531E+11
 -1       140 1.25889E+12 2.41452E+12 2.79921E+13 1.21857E+12-2.33294E+12 1.22961E+12
 -1       141 8.06589E+10-6.47279E+10-4.24560E+12 1.94672E+11-6.63281E+12 4.31414E+11
 -1       142-1.03626E+11 1.32545E+11-2.03950E+13 1.25068E+11-1.87836E+12 1.53891E+11
 -1       143-1.54029E+10-2.92732E+10-1.99604E+12 1.25987E+10-5.81542E+12 9.74137E+11
 -1       144-2.45633E+11 2.50614E+11-1.83240E+13-2.45387E+10-1.53265E+12 8.64061E+11
 -1       145-3.43044E+11-1.33830E+11-1.38591E+12-2.27899E+11-6.86693E+12-4.23814E+10
 -1       146 5.61233E+10-1.24862E+11-1.17504E+13 1.19762E+11-4.38146E+12 3.30263E+11
 -1       147-8.08428E+11-1.37818E+12-6.22135E+12-2.91523E+11-2.78185E+11-3.17469E+11
 -1       148-1.56424E+11-1.73208E+11-6.80658E+12-6.37463E+09-3.25551E+11 1.79379E+10
 -1       149-7.09286E+11-7.87303E+11-3.25710E+13-3.89052E+10-8.00045E+10 1.39013E+10
 -1       150-4.78849E+10-4.34404E+10-3.25252E+12-2.81353E+10-2.92363E+11 4.27661E+10
 -1       151-7.11046E+11-6.68194E+11-2.93608E+13-5.06209E+10-7.12456E+10 4.15563E+10
 -1       152 2.38386E+09-7.84063E+09-5.58331E+12 1.55328E+10-2.66687E+12 2.84723E+10
 -1       153-2.28667E+11-3.62376E+11-1.90158E+13-3.53740E+10-1.97478E+11 1.54973E+10
 -1       154 3.18288E+10-1.17372E+11-2.67629E+13-3.34545E+10-2.46268E+11-1.00229E+11
 -1       155-6.58570E+10-1.03214E+11-4.71786E+12 3.48568E+10 5.53506E+12-3.52917E+11
 -1       156-3.95524E+11-3.97246E+11-2.26009E+13 8.40773E+09 1.57530E+12-1.43379E+11
 -1       157-3.34224E+10-3.26995E+10-2.26317E+12-1.35982E+10 4.87951E+12-8.01472E+11
 -1       158-4.30523E+11-3.11173E+11-2.03700E+13-2.85809E+10 1.29091E+12-7.06167E+11
 -1       159-7.67836E+10-3.41361E+10-5.82208E+12-5.61545E+10 2.04910E+12-1.03879E+10
 -1       160-1.30433E+11-2.49182E+11-1.32296E+13 7.23345E+09 3.62427E+12-2.81727E+11
 -1       161-1.38734E+11-3.83125E+11-2.79106E+13-9.88749E+10 1.56152E+11 9.77209E+10
 -1       162-5.39684E+09-3.79106E+09 4.57514E+11-3.17350E+09 7.91762E+12-5.03932E+11
 -1       163-1.77624E+10-2.33193E+10 2.22087E+12-3.33823E+09 2.24913E+12-2.02525E+11
 -1       164-5.69620E+08-2.95449E+08 2.31831E+11-9.17324E+08 6.97990E+12-1.14779E+12
 -1       165-1.47876E+10-2.12327E+10 1.99272E+12-1.07838E+09 1.84056E+12-1.01406E+12
 -1       166-1.99982E+10-1.05242E+10-2.15180E+12-1.18597E+10 5.26178E+12-2.19120E+10
 -1       167-5.24330E+09-5.58326E+09 1.35204E+12-2.96850E+09 5.18784E+12-4.00884E+11
 -1       168-3.26774E+10-1.15911E+11-1.03070E+13-3.09218E+10 3.84791E+11 2.42797E+11
 -1       169 6.97776E+10 9.71504E+10 5.66370E+12-2.31084E+10 5.71501E+12-3.64468E+11
 -1       170 3.81024E+11 3.95987E+11 2.71967E+13-3.75699E+08 1.62635E+12-1.48978E+11
 -1       171 3.04946E+10 2.91597E+10 2.74351E+12 1.36690E+10 5.03894E+12-8.28763E+11
 -1       172 4.04656E+11 3.18621E+11 2.44879E+13 2.68468E+10 1.33193E+12-7.34016E+11
 -1       173 2.16945E+10 9.40222E+09 3.09019E+12 1.43990E+10 5.32675E+12-2.27392E+10
 -1       174 1.26683E+11 2.29075E+11 1.60349E+13 3.27171E+07 3.74575E+12-2.90500E+11
 -1       175 3.66726E+10 1.19357E+11 1.48689E+13 3.13922E+10 3.89392E+11 2.44273E+11
 -1       176 9.39858E+10 1.31535E+11 7.95909E+12-3.25380E+10 4.69942E+11-3.00037E+10
 -1       177 5.13866E+11 5.33133E+11 3.82292E+13-1.96146E+09 1.34034E+11-1.66281E+10
 -1       178 4.14571E+10 3.96302E+10 3.85950E+12 1.82830E+10 4.15559E+11-6.85825E+10
 -1       179 5.47896E+11 4.28851E+11 3.44191E+13 3.63679E+10 1.09945E+11-6.48811E+10
 -1       180 5.43777E+10 2.37893E+10 6.87644E+12 3.69393E+10 2.40837E+12-1.06509E+10
 -1       181 1.70568E+11 3.10736E+11 2.25566E+13-1.12194E+09 3.09178E+11-2.48850E+10
 -1       182 9.16088E+10 2.92140E+11 3.30656E+13 7.71583E+10 1.74656E+11 1.06791E+11
 -1       183 4.86986E+10 7.32918E+10 6.28276E+12-2.43379E+10-4.40674E+12 2.76950E+11
 -1       184 2.82536E+11 2.85497E+11 3.02376E+13-3.17899E+09-1.23611E+12 1.03472E+11
 -1       185 2.41275E+10 2.39455E+10 3.07568E+12 8.66737E+09-3.87857E+12 6.35696E+11
 -1       186 3.04909E+11 2.25781E+11 2.72025E+13 2.06816E+10-1.00802E+12 5.50612E+11
 -1       187 4.98202E+10 2.06352E+10 7.18962E+12 3.38220E+10-1.56159E+12 4.88610E+09
 -1       188 9.72925E+10 1.76464E+11 1.79645E+13-3.68327E+09-2.87638E+12 2.20797E+11
 -1       189 8.61402E+10 2.73623E+11 3.46109E+13 7.18307E+10-1.12810E+11-7.95731E+10
 -1       190-3.64652E+10-5.43335E+10 2.20379E+12 7.35250E+09-5.28115E+12 3.39350E+11
 -1       191-1.82548E+11-2.00859E+11 1.08833E+13-1.44908E+10-1.52449E+12 1.25238E+11
 -1       192-2.19700E+10-2.21994E+10 1.14117E+12-1.15164E+10-4.65335E+12 7.64730E+11
 -1       193-2.09419E+11-1.60134E+11 9.69546E+12-2.33044E+10-1.25005E+12 6.70243E+11
 -1       194 1.27352E+10 2.35849E+09 4.28442E+12 1.18484E+10-3.82094E+12 1.63355E+10
 -1       195-8.20538E+10-1.47625E+11 6.71411E+12-1.08819E+10-3.46911E+12 2.64219E+11
 -1       196 1.88176E+10 5.49747E+10 2.07238E+13 1.27921E+10-3.00511E+11-1.96935E+11
 -1       197-1.14021E+11-1.35862E+11-3.39010E+11-5.23449E+10-1.24917E+12 1.11662E+11
 -1       198-4.72982E+11-6.03852E+11-1.62939E+12-3.35151E+10-4.96636E+11 7.78449E+10
 -1       199-8.06695E+10-5.02078E+10-7.66600E+10-7.62010E+10-1.01377E+12 2.02610E+11
 -1       200-5.59001E+11-5.23083E+11-1.45379E+12-6.79292E+10-3.66788E+11 2.18779E+11
 -1       201-5.13751E+10-4.52170E+10 8.12729E+11-4.36086E+10-2.35955E+12-3.59808E+09
 -1       202-2.10206E+11-4.71578E+11-5.79466E+11-5.79003E+10-9.45401E+11 9.12355E+10
 -1       203-1.02078E+11-2.44349E+11 4.05369E+12-5.60568E+10-1.13347E+11-1.16685E+11
 -1       204-2.28759E+13-2.28759E+13-5.33768E+13 1.84737E+05-7.64312E+12 6.33188E+12
 -1       205-2.15190E+11 2.89362E+11-1.12196E+13 7.71465E+11-1.89093E+12-8.70820E+11
 -1       206-1.75590E+13-1.75590E+13-4.09706E+13 3.22877E+04-8.39294E+12 1.03702E+12
 -1       207-9.60949E+11 3.08009E+11-9.97079E+12 1.46207E+11-1.09993E+12 2.94720E+12
 -1       208-1.30112E+13-1.30112E+13-3.03599E+13-1.15993E+07-5.68609E+12 4.28203E+12
 -1       209-1.25889E+12-2.41452E+12-2.79921E+13-1.21857E+12-2.33294E+12 1.22961E+12
 -1       210-5.67045E+11-1.32546E+12-7.15012E+12 5.91094E+11-6.66119E+12-2.26531E+11
 -1       211-2.01533E+13-2.01533E+13-4.70249E+13-8.32624E+06-8.13755E+12 3.64349E+12
 -1       212-9.60525E+11 1.68000E+11-1.07344E+13 2.36153E+11-1.28891E+12 9.60797E+11
 -1       213-8.12901E+12-8.12901E+12-1.89680E+13-1.48594E+06-6.97314E+12 1.30598E+12
 -1       214-1.07028E+12-2.26507E+12-2.29834E+13-2.67277E+11-2.72871E+12 1.56679E+12
 -1       215-1.00285E+12-1.18933E+12-5.28191E+12 1.01563E+10-5.27920E+12 2.62269E+12
 -1       216 1.03626E+11-1.32545E+11 2.03950E+13-1.25068E+11-1.87836E+12 1.53891E+11
 -1       217 2.49089E+11-3.10395E+11 1.63381E+13-5.05871E+10-1.66018E+12 1.72359E+12
 -1       218 8.08428E+11 1.37818E+12 6.22135E+12 2.91523E+11-2.78185E+11-3.17469E+11
 -1       219-5.61233E+10 1.24862E+11 1.17504E+13-1.19762E+11-4.38146E+12 3.30263E+11
 -1       220 2.45633E+11-2.50614E+11 1.83240E+13 2.45387E+10-1.53265E+12 8.64061E+11
 -1       221 5.15009E+11 1.32012E+12 5.33332E+12 5.92215E+10 1.63094E+11 1.78443E+12
 -1       222 1.12651E+11 5.92740E+10 7.68125E+12-3.27388E+09-3.74872E+12 1.51119E+12
 -1       223 7.09286E+11 7.87303E+11 3.25710E+13 3.89052E+10-8.00045E+10 1.39013E+10
 -1       224 6.66549E+11 6.01956E+11 2.61934E+13 1.65650E+09-6.90295E+10 8.45972E+10
 -1       225-3.18288E+10 1.17372E+11 2.67629E+13 3.34545E+10-2.46268E+11-1.00229E+11
 -1       226 2.28667E+11 3.62376E+11 1.90158E+13 3.53740E+10-1.97478E+11 1.54973E+10
 -1       227 7.11046E+11 6.68194E+11 2.93608E+13 5.06209E+10-7.12456E+10 4.15563E+10
 -1       228 3.01727E+10-9.17369E+09 2.14859E+13-4.03632E+09-1.09568E+11 6.93009E+11
 -1       229 1.67169E+11 1.84273E+11 1.25165E+13 7.31120E+09-1.64575E+11 7.59731E+10
 -1       230 3.95524E+11 3.97246E+11 2.26009E+13-8.40773E+09 1.57530E+12-1.43379E+11
 -1       231 3.97191E+11 2.53434E+11 1.81555E+13-9.05783E+09 1.35811E+12-1.43833E+12
 -1       232 1.38734E+11 3.83125E+11 2.79106E+13 9.88749E+10 1.56152E+11 9.77209E+10
 -1       233 1.30433E+11 2.49182E+11 1.32296E+13-7.23345E+09 3.62427E+12-2.81727E+11
 -1       234 4.30523E+11 3.11173E+11 2.03700E+13 2.85809E+10 1.29091E+12-7.06167E+11
 -1       235 1.31364E+11 2.95482E+11 2.24048E+13 1.45922E+10 3.99754E+10-5.32476E+11
 -1       236 1.25836E+11 1.28618E+11 8.70922E+12 3.53362E+09 3.08426E+12-1.26798E+12
 -1       237 1.77624E+10 2.33193E+10-2.22087E+12 3.33823E+09 2.24913E+12-2.02525E+11
 -1       238 1.45889E+10 2.07684E+10-1.76063E+12 8.24662E+08 1.93925E+12-2.05746E+12
 -1       239 3.26774E+10 1.15911E+11 1.03070E+13 3.09218E+10 3.84791E+11 2.42797E+11
 -1       240 5.24330E+09 5.58326E+09-1.35204E+12 2.96850E+09 5.18784E+12-4.00884E+11
 -1       241 1.47876E+10 2.12327E+10-1.99272E+12 1.07838E+09 1.84056E+12-1.01406E+12
 -1       242 4.04996E+10 7.69581E+10 8.28064E+12 3.08185E+09 8.43227E+10-1.36732E+12
 -1       243 1.13696E+09 2.19204E+09-8.92141E+11 2.38375E+08 4.41698E+12-1.81379E+12
 -1       244-3.81024E+11-3.95987E+11-2.71967E+13 3.75699E+08 1.62635E+12-1.48978E+11
 -1       245-3.73859E+11-2.68521E+11-2.17953E+13 6.00491E+09 1.40256E+12-1.48510E+12
 -1       246-3.66726E+10-1.19357E+11-1.48689E+13-3.13922E+10 3.89392E+11 2.44273E+11
 -1       247-1.26683E+11-2.29075E+11-1.60349E+13-3.27171E+07 3.74575E+12-2.90500E+11
 -1       248-4.04656E+11-3.18621E+11-2.44879E+13-2.68468E+10 1.33193E+12-7.34016E+11
 -1       249-3.61821E+10-8.34859E+10-1.18918E+13-3.74171E+09 8.75061E+10-1.38420E+12
 -1       250-1.12214E+11-1.17351E+11-1.05577E+13-3.55201E+09 3.18928E+12-1.30941E+12
 -1       251-5.13866E+11-5.33133E+11-3.82292E+13 1.96146E+09 1.34034E+11-1.66281E+10
 -1       252-5.06180E+11-3.61680E+11-3.06285E+13 8.45527E+09 1.15462E+11-1.22118E+11
 -1       253-9.16088E+10-2.92140E+11-3.30656E+13-7.71583E+10 1.74656E+11 1.06791E+11
 -1       254-1.70568E+11-3.10736E+11-2.25566E+13 1.12194E+09 3.09178E+11-2.48850E+10
 -1       255-5.47896E+11-4.28851E+11-3.44191E+13-3.63679E+10 1.09945E+11-6.48811E+10
 -1       256-9.15470E+10-2.09259E+11-2.64622E+13-9.59899E+09 4.09875E+10-6.25837E+11
 -1       257-1.52507E+11-1.59537E+11-1.48523E+13-4.75099E+09 2.63922E+11-1.07987E+11
 -1       258-2.82536E+11-2.85497E+11-3.02376E+13 3.17899E+09-1.23611E+12 1.03472E+11
 -1       259-2.82045E+11-1.87404E+11-2.41776E+13 6.32440E+09-1.06577E+12 1.14513E+12
 -1       260-8.61402E+10-2.73623E+11-3.46109E+13-7.18307E+10-1.12810E+11-7.95731E+10
 -1       261-9.72925E+10-1.76464E+11-1.79645E+13 3.68327E+09-2.87638E+12 2.20797E+11
 -1       262-3.04909E+11-2.25781E+11-2.72025E+13-2.06816E+10-1.00802E+12 5.50612E+11
 -1       263-7.94092E+10-1.91720E+11-2.76674E+13-8.78894E+09-1.88029E+10 4.05793E+11
 -1       264-9.21483E+10-9.28487E+10-1.18360E+13-2.25229E+09-2.44631E+12 1.00788E+12
 -1       265 1.82548E+11 2.00859E+11-1.08833E+13 1.44908E+10-1.52449E+12 1.25238E+11
 -1       266 2.09089E+11 1.40327E+11-8.48072E+12-1.91061E+09-1.30590E+12 1.37235E+12
 -1       267-1.88176E+10-5.49747E+10-2.07238E+13-1.27921E+10-3.00511E+11-1.96935E+11
 -1       268 8.20538E+10 1.47625E+11-6.71411E+12 1.08819E+10-3.46911E+12 2.64219E+11
 -1       269 2.09419E+11 1.60134E+11-9.69546E+12 2.33044E+10-1.25005E+12 6.70243E+11
 -1       270-9.07604E+09-4.90082E+10-1.64875E+13-3.07892E+09-6.28630E+10 9.92904E+11
 -1       271 8.54287E+10 8.45459E+10-4.39151E+12 2.99264E+09-2.94287E+12 1.20921E+12
 -1       272 4.72982E+11 6.03852E+11 1.62939E+12 3.35151E+10-4.96636E+11 7.78449E+10
 -1       273 5.22829E+11 4.38781E+11 1.30459E+12 1.36023E+10-4.29704E+11 3.24608E+11
 -1       274 1.02078E+11 2.44349E+11-4.05369E+12 5.60568E+10-1.13347E+11-1.16685E+11
 -1       275 2.10206E+11 4.71578E+11 5.79466E+11 5.79003E+10-9.45401E+11 9.12355E+10
 -1       276 5.59001E+11 5.23083E+11 1.45379E+12 6.79292E+10-3.66788E+11 2.18779E+11
 -1       277 1.74006E+11 1.97704E+11-3.12758E+12 1.13321E+10 1.38463E+10 6.13150E+11
 -1       278 1.93212E+11 3.10436E+11 2.95007E+11 1.98015E+10-7.79693E+11 2.63438E+11
 -1       279-1.34391E+13-1.34391E+13-3.13578E+13-1.08529E+05-5.22100E+12-2.98902E+12
 -1       280-4.07634E+11 4.51208E+11-6.59130E+12-4.53220E+11-2.65015E+12 2.05086E+12
 -1       281-1.58204E+13-1.58204E+13-3.69144E+13 3.06727E+06-6.92953E+12-1.00202E+12
 -1       282-3.60892E+11 5.08377E+11-8.30393E+12 5.90921E+10-1.60184E+12 2.61269E+12
 -1       283-3.66310E+12-3.66310E+12-8.54750E+12 8.63856E+06-4.47891E+12-3.66721E+11
 -1       284-9.54841E+10-2.06257E+12-1.64448E+13 7.15885E+11-1.98549E+12-1.07430E+11
 -1       285-7.42808E+11-9.82077E+11-2.20285E+12-5.45083E+11-7.09045E+12 9.77718E+11
 -1       286 1.92509E+11-2.09498E+11 1.19816E+13 7.34746E+10-2.06464E+12 8.70732E+11
 -1       287 2.11616E+11-2.55631E+11 1.44287E+13-9.48424E+10-1.57055E+12 1.45282E+12
 -1       288 1.57382E+11 1.12721E+12 3.65491E+12-1.71264E+11-4.95418E+11 5.18497E+11
 -1       289 7.54291E+10 6.04190E+09 3.23936E+12 1.50784E+11-4.53446E+12 4.76132E+11
 -1       290 3.73208E+11 5.06007E+11 1.91348E+13-2.28560E+10-8.38438E+10 2.86761E+10
 -1       291 6.12058E+11 6.37523E+11 2.30147E+13-3.82367E+10-7.29269E+10 6.24899E+10
 -1       292-1.01856E+11 1.52111E+11 1.57226E+13-1.96539E+10-3.37798E+11 2.52004E+11
 -1       293-1.10635E+11 1.85555E+10 5.40562E+12-1.22835E+10-2.02918E+11 2.19672E+10
 -1       294 2.31402E+11 2.34334E+11 1.32776E+13 4.93937E+09 1.72354E+12-7.13852E+11
 -1       295 3.53994E+11 2.83544E+11 1.59467E+13-3.67520E+10 1.32086E+12-1.21156E+12
 -1       296-5.47095E+10 3.61291E+11 1.63969E+13-5.80870E+10 2.33233E+11-1.98906E+11
 -1       297-2.41093E+10 4.53187E+10 3.79233E+12 2.42108E+10 3.75560E+12-3.96965E+11
 -1       298 7.33792E+09 1.67968E+10-1.30471E+12-1.96114E+09 2.46200E+12-1.02170E+12
 -1       299 1.38174E+10 2.13856E+10-1.52777E+12 4.19943E+08 1.88371E+12-1.73053E+12
 -1       300-2.71929E+10 1.14485E+11 6.05517E+12-1.81659E+10 5.75846E+11-4.92427E+11
 -1       301-5.83144E+09-1.84999E+09-4.37211E+11-2.79740E+09 5.37402E+12-5.66900E+11
 -1       302-2.15505E+11-2.40974E+11-1.59775E+13-2.20715E+08 1.77887E+12-7.35897E+11
 -1       303-3.35588E+11-2.94161E+11-1.90975E+13 3.07168E+10 1.36292E+12-1.24738E+12
 -1       304 2.45398E+10-1.16204E+11-8.73517E+12 1.84423E+10 5.81935E+11-4.96681E+11
 -1       305 3.25541E+10-3.67156E+10-4.70884E+12-1.49257E+10 3.87915E+12-4.09780E+11
 -1       306-2.91147E+11-3.23943E+11-2.24589E+13-1.15232E+09 1.44179E+11-5.56678E+10
 -1       307-4.54060E+11-3.95896E+11-2.68322E+13 4.22605E+10 1.11999E+11-9.80436E+10
 -1       308 5.79486E+10-2.83393E+11-1.94254E+13 4.53289E+10 2.59472E+11-2.19603E+11
 -1       309 4.37497E+10-5.03691E+10-6.63993E+12-2.15542E+10 3.17796E+11-3.27888E+10
 -1       310-1.64334E+11-1.69374E+11-1.77640E+13-1.86759E+09-1.35748E+12 5.70495E+11
 -1       311-2.50717E+11-2.04256E+11-2.11298E+13 2.57298E+10-1.03095E+12 9.72802E+11
 -1       312 5.38887E+10-2.65242E+11-2.03332E+13 4.21991E+10-1.73499E+11 1.53973E+11
 -1       313 1.44564E+10-3.20800E+10-5.40494E+12-1.57437E+10-2.98609E+12 3.09049E+11
 -1       314 9.70373E+10 1.28206E+11-6.39373E+12-8.51303E+09-1.67548E+12 7.06301E+11
 -1       315 1.57470E+11 1.37593E+11-7.35754E+12-2.06146E+10-1.28384E+12 1.16621E+12
 -1       316 9.09738E+09-5.24489E+10-1.21748E+13 7.51509E+09-4.53798E+11 3.92949E+11
 -1       317 4.68677E+09 5.22855E+10-2.28274E+12 5.30886E+08-3.59799E+12 3.94234E+11
 -1       318 2.04926E+11 4.27692E+11 9.57233E+11-1.96894E+10-5.25178E+11 1.87682E+11
 -1       319 3.77127E+11 4.81684E+11 1.34138E+12-4.54966E+10-3.69060E+11 2.76457E+11
 -1       320-1.93267E+10 2.22845E+11-2.38146E+12-3.29322E+10-1.94798E+11 1.96759E+11
 -1       321-5.08919E+10 2.28317E+11-1.46883E+11-2.84256E+10-9.60389E+11 9.99811E+10
 -3
    1PSTEP                        27           1           1          
    1PGM                1.000000E+00                                  
    1PGK                6.941641E+09                                  
    1PHID                         -1                                  
    1PSUBC                         0                                  
    1PMODE                         7                                  
  100CL  107 13260.23419         321                     2    7MODAL      1
 -4  TOSTRAIN    6    1
 -5  EXX         1    4    1    1
 -5  EYY         1    4    2    2
 -5  EZZ         1    4    3    3
 -5  EXY         1    4    1    2
 -5  EYZ         1    4    2    3
 -5  EZX         1    4    3    1
 -1         1 2.77332E-04 3.41389E-04 1.10925E+02 6.71849E-07-3.23205E+01-1.85035E+01
 -1         2-1.14582E-04-1.02307E-04-3.76612E+01 7.69172E-07-2.47043E+01 1.35013E+01
 -1         3 4.43929E+00 2.39798E+00-1.20957E+01 3.48301E+00-7.02096E+01 1.76940E+00
 -1         4-6.83044E+00-1.21471E+01 3.14494E+01 2.80565E+00-1.64057E+01 1.26958E+01
 -1         5 3.93701E-04 4.40939E-04 1.44930E+02-1.99876E-07-5.19563E+01 6.41963E+00
 -1         6-1.69864E-14-2.95736E-14-2.02329E-11 3.59673E-15-3.60934E+01 9.37920E+00
 -1         7 9.04948E-12 7.00129E-12-3.07603E-11-5.51337E-13-5.76524E+01 1.49815E+01
 -1         8-9.22803E+00-1.70835E+01 4.65472E+01-9.05091E-01-6.80908E+00 1.82446E+01
 -1         9-3.80305E-04-3.68680E-04 3.02364E+01-5.34768E-05-2.77266E+01-2.27018E+00
 -1        10 6.12654E+00 8.04854E+00-2.72021E+01-6.36719E+00-3.73248E+01 4.38954E+00
 -1        11-1.01272E+00 4.68473E-01 8.02564E+00 3.37433E+00-4.38933E+01 6.05254E+00
 -1        12-2.59844E+01-1.38072E+01 7.52255E+01-4.43167E+00-1.22911E+01-6.65043E-01
 -1        13-4.06732E-04-3.52709E-04 1.30582E+02-1.89878E-05-4.28971E+01-6.20299E+00
 -1        14 1.31987E-04 1.31881E-04-1.74361E+01-3.53988E-05-3.11117E+01 1.12173E+01
 -1        15 8.61363E-01 1.16135E+00-5.72215E+00 2.41948E-01-6.24790E+01 8.49239E+00
 -1        16-9.41796E+00-1.47992E+01 3.97532E+01-3.65808E-01-9.91617E+00 1.61738E+01
 -1        17-5.07509E-04-5.07918E-04 6.70983E+01 9.19869E-06-4.31670E+01 8.08465E+00
 -1        18 8.69638E-12 8.17924E-12-2.70867E-11-1.28231E-13-3.75425E+01 9.75575E+00
 -1        19-4.46915E+00-3.31473E+00 2.20202E+01-6.28723E-02-3.26808E+01 1.62357E+01
 -1        20-3.09727E+01-2.35764E+01 1.04680E+02 1.65457E+00-1.68920E+01 9.69917E+00
 -1        21-6.54170E+00-5.64169E+00 2.02399E+01-1.20511E+00-4.10603E+01 2.67066E+00
 -1        22 1.59006E+01 1.83892E+01-5.70797E+01-4.54843E-01-1.27811E+01 5.39024E+00
 -1        23 6.31001E-12 6.06037E-12-2.62689E-11-2.20776E-12-3.41302E+01 8.86903E+00
 -1        24 2.17106E+01 2.51741E+01-7.78881E+01 3.13158E-01-1.02773E+01 1.06699E+01
 -1        25-5.37517E-01-1.83265E+00 5.91833E+00 1.41080E+00-4.25095E+01-2.62361E-01
 -1        26 4.27711E+00 4.70665E+00-1.53092E+01-9.33425E-01-2.80705E+01 2.94748E+00
 -1        27 6.08216E+00 7.84915E-02-1.55692E+01 1.06020E+00-3.06687E+00 3.20974E+00
 -1        28-2.81996E+00-2.73409E+00 9.44113E+00-7.79920E-02-3.60002E+01 6.03037E+00
 -1        29 1.92396E+01 2.21321E+01-6.87711E+01 5.87119E-01-9.72248E+00 8.99364E+00
 -1        30 8.08242E-12 7.01156E-12-2.70512E-11-5.26329E-13-3.40484E+01 8.84776E+00
 -1        31 1.05215E+01 1.08519E+01-3.63318E+01 2.02669E-02-2.32063E+01 9.35497E+00
 -1        32 7.05249E+00 2.06850E+00-2.27752E+01-3.66609E-01 1.00963E+00 1.10465E+01
 -1        33-9.22626E+00-9.12235E+00 3.19414E+01 3.94620E-02-2.01531E+00 1.11044E-01
 -1        34 2.62811E+01 2.54590E+01-8.98621E+01 1.41489E-01-5.19033E-01 1.77519E-01
 -1        35 6.38442E-12 9.39263E-12-2.60520E-11-4.90243E-13-1.67469E+00 4.35182E-01
 -1        36 3.51050E+01 3.55049E+01-1.22918E+02-1.02545E-02-4.27326E-01 5.23697E-01
 -1        37-7.99871E+00-7.93542E+00 2.65794E+01-9.61552E-02-1.65092E+01 1.76257E-01
 -1        38 8.27565E+00 7.47590E+00-2.58726E+01 7.60410E-02-1.25616E+00 1.35987E-01
 -1        39 2.31632E+01 2.15911E+01-7.47979E+01 1.21667E-01-2.09113E+00 1.56002E+00
 -1        40-4.48049E+00-4.50800E+00 1.53577E+01 1.74171E-01-1.80987E+00 2.64743E-01
 -1        41 3.08743E+01 3.07166E+01-1.07809E+02 2.36703E-01-4.51452E-01 3.86842E-01
 -1        42 7.06266E-12 7.18681E-12-2.62523E-11-1.15620E-12-1.28782E+01 3.34652E+00
 -1        43 1.73479E+01 1.72420E+01-5.91003E+01-4.52598E-02-1.01880E+00 4.70310E-01
 -1        44 3.05374E+01 3.07810E+01-1.02284E+02 2.49868E-02-6.78281E-01 4.29006E+00
 -1        45-6.57364E+00-6.34239E+00 2.22245E+01-2.15780E-01 3.42647E+01-2.18472E+00
 -1        46 1.82008E+01 1.81826E+01-6.25612E+01-3.05771E-02 1.06695E+01-4.41908E+00
 -1        47 9.79979E-12 5.18102E-12-2.34273E-11 6.88866E-13 2.85529E+01-7.41973E+00
 -1        48 2.44071E+01 2.52970E+01-8.55252E+01 5.60723E-02 8.40736E+00-8.90397E+00
 -1        49-8.00039E+00-8.26439E+00 2.75657E+01 3.47623E-01 1.26849E+01-6.43063E-02
 -1        50 5.59716E+00 5.16737E+00-1.80284E+01-1.49876E-01 2.32490E+01-2.45740E+00
 -1        51 2.42008E+01 2.16256E+01-7.76426E+01 3.59586E-01 1.44382E+00-1.23132E+00
 -1        52-3.12066E+00-3.12513E+00 1.06825E+01 8.41796E-02 3.02065E+01-4.96149E+00
 -1        53 2.15004E+01 2.19365E+01-7.50261E+01 2.27512E-01 8.17675E+00-7.50012E+00
 -1        54 8.53401E-12 6.89121E-12-2.46804E-11 1.50303E-13 9.85134E+00-2.55996E+00
 -1        55 1.20263E+01 1.20090E+01-4.11090E+01-2.18748E-02 1.90930E+01-7.84942E+00
 -1        56 3.18034E+01 3.07875E+01-1.06080E+02-9.03329E-02 2.47467E-01-3.29628E+00
 -1        57 6.73875E-01 6.63934E-01-2.19176E+00 1.96455E-02 4.90138E+01-3.11958E+00
 -1        58-1.87482E+00-1.93338E+00 6.24740E+00 1.21404E-02 1.52409E+01-6.32481E+00
 -1        59 7.50370E-12 1.02107E-11-2.24994E-11 5.20786E-13 4.08657E+01-1.06193E+01
 -1        60-2.55498E+00-2.59324E+00 8.43444E+00-5.10505E-03 1.20049E+01-1.27367E+01
 -1        61-2.99380E+00-3.05245E+00 1.02030E+01 7.34173E-02 3.25729E+01-1.35646E-01
 -1        62-5.99461E-01-6.24108E-01 2.07098E+00 1.73172E-02 3.32677E+01-3.50938E+00
 -1        63 8.94328E+00 8.06622E+00-2.87094E+01 1.12456E-01 3.56476E+00-3.04836E+00
 -1        64 3.33477E-01 3.31780E-01-1.10519E+00 5.67867E-03 4.32089E+01-7.10537E+00
 -1        65-2.21777E+00-2.26462E+00 7.32537E+00-2.59964E-03 1.16610E+01-1.07128E+01
 -1        66 7.85780E-12 7.96024E-12-2.27467E-11 1.06918E-12 2.53884E+01-6.59741E+00
 -1        67-1.27677E+00-1.28330E+00 4.25305E+00-1.47565E-03 2.73432E+01-1.12282E+01
 -1        68 1.17466E+01 1.15209E+01-3.92638E+01-1.90781E-02 5.21998E-01-8.46436E+00
 -1        69 7.89751E+00 7.72806E+00-2.67315E+01 1.43052E-01 3.53787E+01-2.25623E+00
 -1        70-2.21430E+01-2.19854E+01 7.54312E+01 1.36633E-03 1.10120E+01-4.55555E+00
 -1        71 5.96620E-12 4.03080E-12-1.74994E-11 1.93959E-12 2.95031E+01-7.66663E+00
 -1        72-2.97395E+01-3.03916E+01 1.02869E+02-3.71733E-02 8.68253E+00-9.19345E+00
 -1        73 4.32468E+00 4.40077E+00-1.46708E+01-8.91367E-02 3.29751E+01-1.40767E-01
 -1        74-6.93438E+00-6.50556E+00 2.24171E+01 9.23970E-02 2.40138E+01-2.53674E+00
 -1        75-1.27617E+01-1.18904E+01 4.14651E+01-1.14167E-01 3.60246E+00-3.07469E+00
 -1        76 3.81574E+00 3.82401E+00-1.29791E+01-8.46177E-02 3.11934E+01-5.13044E+00
 -1        77-2.61043E+01-2.63607E+01 9.00407E+01-1.90152E-01 8.43714E+00-7.72189E+00
 -1        78 5.98646E-12 5.81082E-12-1.97408E-11 1.31403E-12 2.57195E+01-6.68343E+00
 -1        79-1.47157E+01-1.46839E+01 4.99468E+01 2.19887E-02 1.97432E+01-8.10589E+00
 -1        80-1.69353E+01-1.66424E+01 5.64567E+01 2.31629E-02 5.41705E-01-8.56888E+00
 -1        81 1.11105E+01 1.08780E+01-3.75783E+01 2.01425E-01 2.90916E+00-1.85737E-01
 -1        82-3.11604E+01-3.09574E+01 1.06068E+02 7.13338E-03 8.92534E-01-3.44610E-01
 -1        83 6.12770E-12 2.97257E-12-1.48719E-11 1.13318E-12 2.44354E+00-6.34975E-01
 -1        84-4.18614E+01-4.27559E+01 1.44610E+02-5.23422E-02 7.14763E-01-7.55971E-01
 -1        85 9.59853E+00 9.78789E+00-3.26333E+01-2.28672E-01 1.49090E+01-6.59344E-02
 -1        86-9.76589E+00-9.18325E+00 3.16092E+01 1.33431E-01 1.96731E+00-2.02978E-01
 -1        87-2.84313E+01-2.63183E+01 9.21797E+01-2.80608E-01 1.60625E+00-1.35944E+00
 -1        88 5.37278E+00 5.38409E+00-1.82628E+01-1.13180E-01 2.57251E+00-4.24558E-01
 -1        89-3.67350E+01-3.70951E+01 1.26558E+02-2.61613E-01 6.93324E-01-6.06937E-01
 -1        90 5.36515E-12 2.91450E-12-1.61130E-11 1.28096E-12 1.16518E+01-3.02782E+00
 -1        91-2.07193E+01-2.06758E+01 7.02796E+01 2.94109E-02 1.63380E+00-6.68489E-01
 -1        92-3.76662E+01-3.69375E+01 1.25581E+02 5.94223E-02 2.53732E-01-3.87423E+00
 -1        93 8.84818E+00 8.69594E+00-2.97436E+01 1.50663E-01-2.72798E+01 1.71445E+00
 -1        94-2.48365E+01-2.48053E+01 8.41136E+01 1.15613E-02-8.40342E+00 3.53164E+00
 -1        95 1.83598E-12 2.32583E-12-9.51900E-12-8.69183E-13-2.26789E+01 5.89330E+00
 -1        96-3.34641E+01-3.40500E+01 1.14461E+02-3.91511E-02-6.59763E+00 7.08889E+00
 -1        97 1.00631E+01 1.02438E+01-3.41357E+01-2.09374E-01-9.66699E+00 3.02473E-02
 -1        98-7.83602E+00-7.54794E+00 2.57127E+01 9.74608E-02-1.84853E+01 1.91316E+00
 -1        99-2.96829E+01-2.77073E+01 9.65227E+01-2.61232E-01-1.07404E+00 9.53167E-01
 -1       100 4.31314E+00 4.31427E+00-1.45774E+01-5.36551E-02-2.40102E+01 3.93526E+00
 -1       101-2.92833E+01-2.95709E+01 9.99680E+01-1.59280E-01-6.38209E+00 6.02211E+00
 -1       102 3.46012E-12 2.44416E-12-1.23191E-11 3.93872E-13-7.47468E+00 1.94236E+00
 -1       103-1.66024E+01-1.65980E+01 5.60975E+01 1.39427E-02-1.51438E+01 6.23926E+00
 -1       104-3.94207E+01-3.87254E+01 1.31362E+02 5.44077E-02-1.16399E-01 2.51205E+00
 -1       105 3.24429E+00 3.35491E+00-1.06239E+01-4.55155E-02-3.26928E+01 2.10074E+00
 -1       106-9.41284E+00-9.60579E+00 3.07681E+01 5.26997E-02-1.03720E+01 4.37234E+00
 -1       107 7.71232E-12 7.44557E-13-5.83562E-12-6.10620E-12-2.71771E+01 7.06221E+00
 -1       108-1.29105E+01-1.24848E+01 4.08835E+01 1.18276E-02-8.08416E+00 8.49551E+00
 -1       109 6.06333E+00 6.12756E+00-2.03804E+01-7.33474E-02-2.36534E+01 1.01124E-01
 -1       110-3.20869E+00-3.50335E+00 1.09516E+01-3.28644E-03-2.22733E+01 2.44050E+00
 -1       111-1.75109E+01-1.71299E+01 5.79135E+01-4.65220E-02-2.80922E+00 2.43254E+00
 -1       112 1.70315E+00 1.70457E+00-5.49726E+00 7.12920E-02-2.88064E+01 4.73404E+00
 -1       113-1.10641E+01-1.09410E+01 3.54574E+01 1.27614E-01-7.94757E+00 7.21937E+00
 -1       114 4.04601E-12 2.26463E-12-7.89624E-12-2.23608E-12-1.83304E+01 4.76332E+00
 -1       115-6.55962E+00-6.55415E+00 2.11548E+01-1.85258E-02-1.82178E+01 7.48560E+00
 -1       116-2.35804E+01-2.33332E+01 7.84289E+01 1.90600E-02-3.89152E-01 6.14655E+00
 -1       117-1.35431E-01-2.27579E-04 1.25736E+00 3.24040E-01-7.73297E+00 6.91243E-01
 -1       118 1.00263E+00-3.76403E-01-3.65451E+00 1.21887E-01-3.25110E+00 1.16184E+00
 -1       119 6.28941E-13-9.10649E-12 6.96991E-13 1.95022E-12-6.08762E+00 1.58192E+00
 -1       120 8.75780E-04 5.21172E-01-4.83863E+00-8.42047E-02-2.66007E+00 2.00948E+00
 -1       121 1.34109E+00 1.30297E+00-4.00813E+00 2.69958E-01-1.46067E+01-2.22738E-02
 -1       122 3.58677E-01-1.36976E+00 9.52909E-01 1.75968E-01-5.94526E+00 6.18930E-01
 -1       123-2.99170E+00-4.49086E+00 1.16310E+01 2.03866E-01-1.20589E+00 1.21803E+00
 -1       124 2.02901E-01 1.43281E-02 1.78080E-01 4.71720E-01-6.27573E+00 1.25425E+00
 -1       125 8.08534E-01 1.61275E-01-5.16065E+00 2.81646E-01-2.28466E+00 1.71140E+00
 -1       126 4.38365E-12-5.19534E-12-2.65019E-12-1.67255E-12-1.10968E+01 2.88360E+00
 -1       127-5.51379E-02-7.80812E-01-6.85296E-01-1.22581E-01-4.82667E+00 1.63080E+00
 -1       128-5.01414E+00-5.16084E+00 1.54243E+01-7.01509E-02 8.57151E-02 3.79569E+00
 -1       129 5.07773E-04 5.45405E-04 1.88815E+02-1.14361E-06-4.73145E+01 3.91973E+01
 -1       130 1.14582E-04 1.02307E-04 3.76612E+01-7.69172E-07-2.47043E+01 1.35013E+01
 -1       131-4.43929E+00-2.39798E+00 1.20957E+01-3.48301E+00-7.02096E+01 1.76940E+00
 -1       132-1.45899E+01-1.77134E+01 5.35327E+01-4.77574E+00-1.17058E+01-5.39079E+00
 -1       133-6.71125E-04-6.15758E-04 1.66347E+02 5.15434E-05-5.03753E+01 2.25549E+01
 -1       134-1.31987E-04-1.31881E-04 1.74361E+01 3.53988E-05-3.11117E+01 1.12173E+01
 -1       135-8.61363E-01-1.16135E+00 5.72215E+00-2.41948E-01-6.24790E+01 8.49239E+00
 -1       136-1.05209E+01-1.75070E+01 4.99839E+01-1.46190E+00-7.97896E+00 5.94779E+00
 -1       137-6.31970E-04-6.48771E-04 1.07396E+02 7.18049E-05-3.51996E+01 2.65078E+01
 -1       138-6.12654E+00-8.04854E+00 2.72021E+01 6.36719E+00-3.73248E+01 4.38954E+00
 -1       139-9.40775E+00-4.71281E+00 3.13446E+01-3.65915E+00-4.12360E+01-1.40233E+00
 -1       140-3.74433E+01-3.02894E+01 1.28048E+02 7.54353E+00-1.44420E+01 7.61188E+00
 -1       141 6.54170E+00 5.64169E+00-2.02399E+01 1.20511E+00-4.10603E+01 2.67066E+00
 -1       142 2.84529E+01 2.99149E+01-9.71603E+01 7.74228E-01-1.16279E+01 9.52657E-01
 -1       143 2.81996E+00 2.73409E+00-9.44113E+00 7.79920E-02-3.60002E+01 6.03037E+00
 -1       144 2.46494E+01 2.77214E+01-8.72641E+01-1.51906E-01-9.48783E+00 5.34895E+00
 -1       145 5.37517E-01 1.83265E+00-5.91833E+00-1.41080E+00-4.25095E+01-2.62361E-01
 -1       146 1.72320E+01 1.61116E+01-5.58563E+01 7.41383E-01-2.71233E+01 2.04448E+00
 -1       147 7.00681E+00 3.47977E+00-2.65017E+01-1.80467E+00-1.72210E+00-1.96529E+00
 -1       148 9.22626E+00 9.12235E+00-3.19414E+01-3.94620E-02-2.01531E+00 1.11044E-01
 -1       149 4.42772E+01 4.37942E+01-1.52962E+02-2.40842E-01-4.95266E-01 8.60558E-02
 -1       150 4.48049E+00 4.50800E+00-1.53577E+01-1.74171E-01-1.80987E+00 2.64743E-01
 -1       151 3.95126E+01 3.97779E+01-1.37843E+02-3.13368E-01-4.41044E-01 2.57253E-01
 -1       152 7.99871E+00 7.93542E+00-2.65794E+01 9.61552E-02-1.65092E+01 1.76257E-01
 -1       153 2.65943E+01 2.57666E+01-8.97073E+01-2.18982E-01-1.22248E+00 9.59357E-02
 -1       154 3.85519E+01 3.76283E+01-1.27320E+02-2.07100E-01-1.52451E+00-6.20465E-01
 -1       155 6.57364E+00 6.34239E+00-2.22245E+01 2.15780E-01 3.42647E+01-2.18472E+00
 -1       156 3.09710E+01 3.09604E+01-1.06491E+02 5.20479E-02 9.75183E+00-8.87584E-01
 -1       157 3.12066E+00 3.12513E+00-1.06825E+01-8.41796E-02 3.02065E+01-4.96149E+00
 -1       158 2.74945E+01 2.82333E+01-9.59405E+01-1.76930E-01 7.99137E+00-4.37151E+00
 -1       159 8.00039E+00 8.26439E+00-2.75657E+01-3.47623E-01 1.26849E+01-6.43063E-02
 -1       160 1.86342E+01 1.78991E+01-6.24556E+01 4.47785E-02 2.24360E+01-1.74403E+00
 -1       161 3.97590E+01 3.82461E+01-1.32162E+02-6.12083E-01 9.66655E-01 6.04939E-01
 -1       162-6.73875E-01-6.63934E-01 2.19176E+00-1.96455E-02 4.90138E+01-3.11958E+00
 -1       163-3.22394E+00-3.25834E+00 1.06342E+01-2.06652E-02 1.39232E+01-1.25373E+00
 -1       164-3.33477E-01-3.31780E-01 1.10519E+00-5.67867E-03 4.32089E+01-7.10537E+00
 -1       165-2.88683E+00-2.92673E+00 9.54060E+00-6.67566E-03 1.13940E+01-6.27752E+00
 -1       166 2.99380E+00 3.05245E+00-1.02030E+01-7.34173E-02 3.25729E+01-1.35646E-01
 -1       167-1.94848E+00-1.95058E+00 6.45375E+00-1.83764E-02 3.21152E+01-2.48167E+00
 -1       168 1.47343E+01 1.42190E+01-4.88688E+01-1.91421E-01 2.38204E+00 1.50303E+00
 -1       169-7.89751E+00-7.72806E+00 2.67315E+01-1.43052E-01 3.53787E+01-2.25623E+00
 -1       170-3.76037E+01-3.75111E+01 1.28398E+02-2.32575E-03 1.00679E+01-9.22244E-01
 -1       171-3.81574E+00-3.82401E+00 1.29791E+01 8.46177E-02 3.11934E+01-5.13044E+00
 -1       172-3.35110E+01-3.40436E+01 1.15576E+02 1.66194E-01 8.24526E+00-4.54391E+00
 -1       173-4.32468E+00-4.40077E+00 1.46708E+01 8.91367E-02 3.29751E+01-1.40767E-01
 -1       174-2.26310E+01-2.19971E+01 7.58483E+01 2.02534E-04 2.31880E+01-1.79833E+00
 -1       175-2.12371E+01-2.07253E+01 7.05813E+01 1.94333E-01 2.41052E+00 1.51217E+00
 -1       176-1.11105E+01-1.08780E+01 3.75783E+01-2.01425E-01 2.90916E+00-1.85737E-01
 -1       177-5.29277E+01-5.28085E+01 1.80548E+02-1.21423E-02 8.29733E-01-1.02936E-01
 -1       178-5.37278E+00-5.38409E+00 1.82628E+01 1.13180E-01 2.57251E+00-4.24558E-01
 -1       179-4.71738E+01-4.79108E+01 1.62505E+02 2.25135E-01 6.80610E-01-4.01645E-01
 -1       180-9.59853E+00-9.78789E+00 3.26333E+01 2.28672E-01 1.49090E+01-6.59344E-02
 -1       181-3.18554E+01-3.09877E+01 1.06725E+02-6.94534E-03 1.91396E+00-1.54050E-01
 -1       182-4.72177E+01-4.59763E+01 1.56907E+02 4.77647E-01 1.08120E+00 6.61085E-01
 -1       183-8.84818E+00-8.69594E+00 2.97436E+01-1.50663E-01-2.72798E+01 1.71445E+00
 -1       184-4.22590E+01-4.22407E+01 1.43177E+02-1.96795E-02-7.65214E+00 6.40540E-01
 -1       185-4.31314E+00-4.31427E+00 1.45774E+01 5.36551E-02-2.40102E+01 3.93526E+00
 -1       186-3.77314E+01-3.82212E+01 1.28778E+02 1.28029E-01-6.24013E+00 3.40855E+00
 -1       187-1.00631E+01-1.02438E+01 3.41357E+01 2.09374E-01-9.66699E+00 3.02473E-02
 -1       188-2.54524E+01-2.49623E+01 8.51542E+01-2.28012E-02-1.78062E+01 1.36684E+00
 -1       189-4.94248E+01-4.82642E+01 1.64300E+02 4.44666E-01-6.98350E-01-4.92595E-01
 -1       190-3.24429E+00-3.35491E+00 1.06239E+01 4.55155E-02-3.26928E+01 2.10074E+00
 -1       191-1.61299E+01-1.62433E+01 5.23731E+01-8.97047E-02-9.43729E+00 7.75283E-01
 -1       192-1.70315E+00-1.70457E+00 5.49726E+00-7.12920E-02-2.88064E+01 4.73404E+00
 -1       193-1.46191E+01-1.43140E+01 4.66968E+01-1.44265E-01-7.73842E+00 4.14913E+00
 -1       194-6.06333E+00-6.12756E+00 2.03804E+01 7.33474E-02-2.36534E+01 1.01124E-01
 -1       195-9.77143E+00-1.01773E+01 3.23001E+01-6.73639E-02-2.14755E+01 1.63564E+00
 -1       196-2.95944E+01-2.93706E+01 9.85796E+01 7.91891E-02-1.86031E+00-1.21912E+00
 -1       197 1.35431E-01 2.27579E-04-1.25736E+00-3.24040E-01-7.73297E+00 6.91243E-01
 -1       198 9.38052E-01 1.27900E-01-6.22066E+00-2.07474E-01-3.07441E+00 4.81897E-01
 -1       199-2.02901E-01-1.43281E-02-1.78080E-01-4.71720E-01-6.27573E+00 1.25425E+00
 -1       200 1.62195E-01 3.84542E-01-5.37697E+00-4.20514E-01-2.27059E+00 1.35435E+00
 -1       201-1.34109E+00-1.30297E+00 4.00813E+00-2.69958E-01-1.46067E+01-2.22738E-02
 -1       202 5.00512E-01-1.11751E+00-1.78538E+00-3.58431E-01-5.85248E+00 5.64791E-01
 -1       203-5.92800E+00-6.80873E+00 1.97982E+01-3.47018E-01-7.01670E-01-7.22337E-01
 -1       204-5.07773E-04-5.45405E-04-1.88815E+02 1.14361E-06-4.73145E+01 3.91973E+01
 -1       205 1.45899E+01 1.77134E+01-5.35327E+01 4.77574E+00-1.17058E+01-5.39079E+00
 -1       206-3.93701E-04-4.40939E-04-1.44930E+02 1.99876E-07-5.19563E+01 6.41963E+00
 -1       207 9.22803E+00 1.70835E+01-4.65472E+01 9.05091E-01-6.80908E+00 1.82446E+01
 -1       208 6.31970E-04 6.48771E-04-1.07396E+02-7.18049E-05-3.51996E+01 2.65078E+01
 -1       209 3.74433E+01 3.02894E+01-1.28048E+02-7.54353E+00-1.44420E+01 7.61188E+00
 -1       210 9.40775E+00 4.71281E+00-3.13446E+01 3.65915E+00-4.12360E+01-1.40233E+00
 -1       211 6.71125E-04 6.15758E-04-1.66347E+02-5.15434E-05-5.03753E+01 2.25549E+01
 -1       212 1.05209E+01 1.75070E+01-4.99839E+01 1.46190E+00-7.97896E+00 5.94779E+00
 -1       213 5.07509E-04 5.07918E-04-6.70983E+01-9.19869E-06-4.31670E+01 8.08465E+00
 -1       214 3.09727E+01 2.35764E+01-1.04680E+02-1.65457E+00-1.68920E+01 9.69917E+00
 -1       215 4.46915E+00 3.31473E+00-2.20202E+01 6.28723E-02-3.26808E+01 1.62357E+01
 -1       216-2.84529E+01-2.99149E+01 9.71603E+01-7.74228E-01-1.16279E+01 9.52657E-01
 -1       217-2.17106E+01-2.51741E+01 7.78881E+01-3.13158E-01-1.02773E+01 1.06699E+01
 -1       218-7.00681E+00-3.47977E+00 2.65017E+01 1.80467E+00-1.72210E+00-1.96529E+00
 -1       219-1.72320E+01-1.61116E+01 5.58563E+01-7.41383E-01-2.71233E+01 2.04448E+00
 -1       220-2.46494E+01-2.77214E+01 8.72641E+01 1.51906E-01-9.48783E+00 5.34895E+00
 -1       221-7.05249E+00-2.06850E+00 2.27752E+01 3.66609E-01 1.00963E+00 1.10465E+01
 -1       222-1.05215E+01-1.08519E+01 3.63318E+01-2.02669E-02-2.32063E+01 9.35497E+00
 -1       223-4.42772E+01-4.37942E+01 1.52962E+02 2.40842E-01-4.95266E-01 8.60558E-02
 -1       224-3.51050E+01-3.55049E+01 1.22918E+02 1.02545E-02-4.27326E-01 5.23697E-01
 -1       225-3.85519E+01-3.76283E+01 1.27320E+02 2.07100E-01-1.52451E+00-6.20465E-01
 -1       226-2.65943E+01-2.57666E+01 8.97073E+01 2.18982E-01-1.22248E+00 9.59357E-02
 -1       227-3.95126E+01-3.97779E+01 1.37843E+02 3.13368E-01-4.41044E-01 2.57253E-01
 -1       228-3.05374E+01-3.07810E+01 1.02284E+02-2.49868E-02-6.78281E-01 4.29006E+00
 -1       229-1.73479E+01-1.72420E+01 5.91003E+01 4.52598E-02-1.01880E+00 4.70310E-01
 -1       230-3.09710E+01-3.09604E+01 1.06491E+02-5.20479E-02 9.75183E+00-8.87584E-01
 -1       231-2.44071E+01-2.52970E+01 8.55252E+01-5.60723E-02 8.40736E+00-8.90397E+00
 -1       232-3.97590E+01-3.82461E+01 1.32162E+02 6.12083E-01 9.66655E-01 6.04939E-01
 -1       233-1.86342E+01-1.78991E+01 6.24556E+01-4.47785E-02 2.24360E+01-1.74403E+00
 -1       234-2.74945E+01-2.82333E+01 9.59405E+01 1.76930E-01 7.99137E+00-4.37151E+00
 -1       235-3.18034E+01-3.07875E+01 1.06080E+02 9.03329E-02 2.47467E-01-3.29628E+00
 -1       236-1.20263E+01-1.20090E+01 4.11090E+01 2.18748E-02 1.90930E+01-7.84942E+00
 -1       237 3.22394E+00 3.25834E+00-1.06342E+01 2.06652E-02 1.39232E+01-1.25373E+00
 -1       238 2.55498E+00 2.59324E+00-8.43444E+00 5.10505E-03 1.20049E+01-1.27367E+01
 -1       239-1.47343E+01-1.42190E+01 4.88688E+01 1.91421E-01 2.38204E+00 1.50303E+00
 -1       240 1.94848E+00 1.95058E+00-6.45375E+00 1.83764E-02 3.21152E+01-2.48167E+00
 -1       241 2.88683E+00 2.92673E+00-9.54060E+00 6.67566E-03 1.13940E+01-6.27752E+00
 -1       242-1.17466E+01-1.15209E+01 3.92638E+01 1.90781E-02 5.21998E-01-8.46436E+00
 -1       243 1.27677E+00 1.28330E+00-4.25305E+00 1.47565E-03 2.73432E+01-1.12282E+01
 -1       244 3.76037E+01 3.75111E+01-1.28398E+02 2.32575E-03 1.00679E+01-9.22244E-01
 -1       245 2.97395E+01 3.03916E+01-1.02869E+02 3.71733E-02 8.68253E+00-9.19345E+00
 -1       246 2.12371E+01 2.07253E+01-7.05813E+01-1.94333E-01 2.41052E+00 1.51217E+00
 -1       247 2.26310E+01 2.19971E+01-7.58483E+01-2.02534E-04 2.31880E+01-1.79833E+00
 -1       248 3.35110E+01 3.40436E+01-1.15576E+02-1.66194E-01 8.24526E+00-4.54391E+00
 -1       249 1.69353E+01 1.66424E+01-5.64567E+01-2.31629E-02 5.41705E-01-8.56888E+00
 -1       250 1.47157E+01 1.46839E+01-4.99468E+01-2.19887E-02 1.97432E+01-8.10589E+00
 -1       251 5.29277E+01 5.28085E+01-1.80548E+02 1.21423E-02 8.29733E-01-1.02936E-01
 -1       252 4.18614E+01 4.27559E+01-1.44610E+02 5.23422E-02 7.14763E-01-7.55971E-01
 -1       253 4.72177E+01 4.59763E+01-1.56907E+02-4.77647E-01 1.08120E+00 6.61085E-01
 -1       254 3.18554E+01 3.09877E+01-1.06725E+02 6.94534E-03 1.91396E+00-1.54050E-01
 -1       255 4.71738E+01 4.79108E+01-1.62505E+02-2.25135E-01 6.80610E-01-4.01645E-01
 -1       256 3.76662E+01 3.69375E+01-1.25581E+02-5.94223E-02 2.53732E-01-3.87423E+00
 -1       257 2.07193E+01 2.06758E+01-7.02796E+01-2.94109E-02 1.63380E+00-6.68489E-01
 -1       258 4.22590E+01 4.22407E+01-1.43177E+02 1.96795E-02-7.65214E+00 6.40540E-01
 -1       259 3.34641E+01 3.40500E+01-1.14461E+02 3.91511E-02-6.59763E+00 7.08889E+00
 -1       260 4.94248E+01 4.82642E+01-1.64300E+02-4.44666E-01-6.98350E-01-4.92595E-01
 -1       261 2.54524E+01 2.49623E+01-8.51542E+01 2.28012E-02-1.78062E+01 1.36684E+00
 -1       262 3.77314E+01 3.82212E+01-1.28778E+02-1.28029E-01-6.24013E+00 3.40855E+00
 -1       263 3.94207E+01 3.87254E+01-1.31362E+02-5.44077E-02-1.16399E-01 2.51205E+00
 -1       264 1.66024E+01 1.65980E+01-5.60975E+01-1.39427E-02-1.51438E+01 6.23926E+00
 -1       265 1.61299E+01 1.62433E+01-5.23731E+01 8.97047E-02-9.43729E+00 7.75283E-01
 -1       266 1.29105E+01 1.24848E+01-4.08835E+01-1.18276E-02-8.08416E+00 8.49551E+00
 -1       267 2.95944E+01 2.93706E+01-9.85796E+01-7.91891E-02-1.86031E+00-1.21912E+00
 -1       268 9.77143E+00 1.01773E+01-3.23001E+01 6.73639E-02-2.14755E+01 1.63564E+00
 -1       269 1.46191E+01 1.43140E+01-4.66968E+01 1.44265E-01-7.73842E+00 4.14913E+00
 -1       270 2.35804E+01 2.33332E+01-7.84289E+01-1.90600E-02-3.89152E-01 6.14655E+00
 -1       271 6.55962E+00 6.55415E+00-2.11548E+01 1.85258E-02-1.82178E+01 7.48560E+00
 -1       272-9.38052E-01-1.27900E-01 6.22066E+00 2.07474E-01-3.07441E+00 4.81897E-01
 -1       273-8.75780E-04-5.21172E-01 4.83863E+00 8.42047E-02-2.66007E+00 2.00948E+00
 -1       274 5.92800E+00 6.80873E+00-1.97982E+01 3.47018E-01-7.01670E-01-7.22337E-01
 -1       275-5.00512E-01 1.11751E+00 1.78538E+00 3.58431E-01-5.85248E+00 5.64791E-01
 -1       276-1.62195E-01-3.84542E-01 5.37697E+00 4.20514E-01-2.27059E+00 1.35435E+00
 -1       277 5.01414E+00 5.16084E+00-1.54243E+01 7.01509E-02 8.57151E-02 3.79569E+00
 -1       278 5.51379E-02 7.80812E-01 6.85296E-01 1.22581E-01-4.82667E+00 1.63080E+00
 -1       279-2.77332E-04-3.41389E-04-1.10925E+02-6.71849E-07-3.23205E+01-1.85035E+01
 -1       280 6.83044E+00 1.21471E+01-3.14494E+01-2.80565E+00-1.64057E+01 1.26958E+01
 -1       281 4.06732E-04 3.52709E-04-1.30582E+02 1.89878E-05-4.28971E+01-6.20299E+00
 -1       282 9.41796E+00 1.47992E+01-3.97532E+01 3.65808E-01-9.91617E+00 1.61738E+01
 -1       283 3.80305E-04 3.68680E-04-3.02364E+01 5.34768E-05-2.77266E+01-2.27018E+00
 -1       284 2.59844E+01 1.38072E+01-7.52255E+01 4.43167E+00-1.22911E+01-6.65043E-01
 -1       285 1.01272E+00-4.68473E-01-8.02564E+00-3.37433E+00-4.38933E+01 6.05254E+00
 -1       286-1.59006E+01-1.83892E+01 5.70797E+01 4.54843E-01-1.27811E+01 5.39024E+00
 -1       287-1.92396E+01-2.21321E+01 6.87711E+01-5.87119E-01-9.72248E+00 8.99364E+00
 -1       288-6.08216E+00-7.84915E-02 1.55692E+01-1.06020E+00-3.06687E+00 3.20974E+00
 -1       289-4.27711E+00-4.70665E+00 1.53092E+01 9.33425E-01-2.80705E+01 2.94748E+00
 -1       290-2.62811E+01-2.54590E+01 8.98621E+01-1.41489E-01-5.19033E-01 1.77519E-01
 -1       291-3.08743E+01-3.07166E+01 1.07809E+02-2.36703E-01-4.51452E-01 3.86842E-01
 -1       292-2.31632E+01-2.15911E+01 7.47979E+01-1.21667E-01-2.09113E+00 1.56002E+00
 -1       293-8.27565E+00-7.47590E+00 2.58726E+01-7.60410E-02-1.25616E+00 1.35987E-01
 -1       294-1.82008E+01-1.81826E+01 6.25612E+01 3.05771E-02 1.06695E+01-4.41908E+00
 -1       295-2.15004E+01-2.19365E+01 7.50261E+01-2.27512E-01 8.17675E+00-7.50012E+00
 -1       296-2.42008E+01-2.16256E+01 7.76426E+01-3.59586E-01 1.44382E+00-1.23132E+00
 -1       297-5.59716E+00-5.16737E+00 1.80284E+01 1.49876E-01 2.32490E+01-2.45740E+00
 -1       298 1.87482E+00 1.93338E+00-6.24740E+00-1.21404E-02 1.52409E+01-6.32481E+00
 -1       299 2.21777E+00 2.26462E+00-7.32537E+00 2.59964E-03 1.16610E+01-1.07128E+01
 -1       300-8.94328E+00-8.06622E+00 2.87094E+01-1.12456E-01 3.56476E+00-3.04836E+00
 -1       301 5.99461E-01 6.24108E-01-2.07098E+00-1.73172E-02 3.32677E+01-3.50938E+00
 -1       302 2.21430E+01 2.19854E+01-7.54312E+01-1.36633E-03 1.10120E+01-4.55555E+00
 -1       303 2.61043E+01 2.63607E+01-9.00407E+01 1.90152E-01 8.43714E+00-7.72189E+00
 -1       304 1.27617E+01 1.18904E+01-4.14651E+01 1.14167E-01 3.60246E+00-3.07469E+00
 -1       305 6.93438E+00 6.50556E+00-2.24171E+01-9.23970E-02 2.40138E+01-2.53674E+00
 -1       306 3.11604E+01 3.09574E+01-1.06068E+02-7.13338E-03 8.92534E-01-3.44610E-01
 -1       307 3.67350E+01 3.70951E+01-1.26558E+02 2.61613E-01 6.93324E-01-6.06937E-01
 -1       308 2.84313E+01 2.63183E+01-9.21797E+01 2.80608E-01 1.60625E+00-1.35944E+00
 -1       309 9.76589E+00 9.18325E+00-3.16092E+01-1.33431E-01 1.96731E+00-2.02978E-01
 -1       310 2.48365E+01 2.48053E+01-8.41136E+01-1.15613E-02-8.40342E+00 3.53164E+00
 -1       311 2.92833E+01 2.95709E+01-9.99680E+01 1.59280E-01-6.38209E+00 6.02211E+00
 -1       312 2.96829E+01 2.77073E+01-9.65227E+01 2.61232E-01-1.07404E+00 9.53167E-01
 -1       313 7.83602E+00 7.54794E+00-2.57127E+01-9.74608E-02-1.84853E+01 1.91316E+00
 -1       314 9.41284E+00 9.60579E+00-3.07681E+01-5.26997E-02-1.03720E+01 4.37234E+00
 -1       315 1.10641E+01 1.09410E+01-3.54574E+01-1.27614E-01-7.94757E+00 7.21937E+00
 -1       316 1.75109E+01 1.71299E+01-5.79135E+01 4.65220E-02-2.80922E+00 2.43254E+00
 -1       317 3.20869E+00 3.50335E+00-1.09516E+01 3.28644E-03-2.22733E+01 2.44050E+00
 -1       318-1.00263E+00 3.76403E-01 3.65451E+00-1.21887E-01-3.25110E+00 1.16184E+00
 -1       319-8.08534E-01-1.61275E-01 5.16065E+00-2.81646E-01-2.28466E+00 1.71140E+00
 -1       320 2.99170E+00 4.49086E+00-1.16310E+01-2.03866E-01-1.20589E+00 1.21803E+00
 -1       321-3.58677E-01 1.36976E+00-9.52909E-01-1.75968E-01-5.94526E+00 6.18930E-01
 -3
    1PSTEP                        28           1           1          
    1PGM                1.000000E+00                                  
    1PGK                6.941641E+09                                  
    1PHID                         -1                                  
    1PSUBC                         0                                  
    1PMODE                         7                                  
  100CL  107 13260.23419         321                     2    7MODAL      1
 -4  ERROR       1    1
 -5  STR(%)      1    1    0    0
 -1         1 2.10924E+01
 -1         2 2.10924E+01
 -1         3 2.10924E+01
 -1         4 2.10924E+01
 -1         5 2.10924E+01
 -1         6 2.10924E+01
 -1         7 2.10924E+01
 -1         8 2.10924E+01
 -1         9 2.10924E+01
 -1        10 2.10924E+01
 -1        11 2.10924E+01
 -1        12 2.10924E+01
 -1        13 2.10924E+01
 -1        14 2.10924E+01
 -1        15 2.10924E+01
 -1        16 2.10924E+01
 -1        17 2.10924E+01
 -1        18 2.10924E+01
 -1        19 2.10924E+01
 -1        20 2.10924E+01
 -1        21 2.12010E+01
 -1        22 2.12010E+01
 -1        23 2.12010E+01
 -1        24 2.12010E+01
 -1        25 2.11467E+01
 -1        26 2.12010E+01
 -1        27 2.11467E+01
 -1        28 2.12010E+01
 -1        29 2.12010E+01
 -1        30 2.11467E+01
 -1        31 2.12010E+01
 -1        32 2.11467E+01
 -1        33 2.15901E+01
 -1        34 2.15901E+01
 -1        35 2.15901E+01
 -1        36 2.15901E+01
 -1        37 2.13955E+01
 -1        38 2.15901E+01
 -1        39 2.13955E+01
 -1        40 2.15901E+01
 -1        41 2.15901E+01
 -1        42 2.13955E+01
 -1        43 2.15901E+01
 -1        44 2.13955E+01
 -1        45 2.15901E+01
 -1        46 2.15901E+01
 -1        47 2.15901E+01
 -1        48 2.15901E+01
 -1        49 2.15901E+01
 -1        50 2.15901E+01
 -1        51 2.15901E+01
 -1        52 2.15901E+01
 -1        53 2.15901E+01
 -1        54 2.15901E+01
 -1        55 2.15901E+01
 -1        56 2.15901E+01
 -1        57 1.68822E+01
 -1        58 1.54450E+01
 -1        59 1.68822E+01
 -1        60 1.68822E+01
 -1        61 1.92362E+01
 -1        62 1.61636E+01
 -1        63 1.85175E+01
 -1        64 1.68822E+01
 -1        65 1.61636E+01
 -1        66 1.92362E+01
 -1        67 1.68822E+01
 -1        68 1.92362E+01
 -1        69 2.13232E+01
 -1        70 2.13232E+01
 -1        71 2.13232E+01
 -1        72 2.13232E+01
 -1        73 1.91027E+01
 -1        74 2.13232E+01
 -1        75 1.83841E+01
 -1        76 2.13232E+01
 -1        77 2.13232E+01
 -1        78 1.91027E+01
 -1        79 2.13232E+01
 -1        80 1.91027E+01
 -1        81 2.16169E+01
 -1        82 2.16169E+01
 -1        83 2.16169E+01
 -1        84 2.16169E+01
 -1        85 2.14700E+01
 -1        86 2.16169E+01
 -1        87 2.14700E+01
 -1        88 2.16169E+01
 -1        89 2.16169E+01
 -1        90 2.14700E+01
 -1        91 2.16169E+01
 -1        92 2.14700E+01
 -1        93 2.16169E+01
 -1        94 2.16169E+01
 -1        95 2.16169E+01
 -1        96 2.16169E+01
 -1        97 2.16169E+01
 -1        98 2.16169E+01
 -1        99 2.16169E+01
 -1       100 2.16169E+01
 -1       101 2.16169E+01
 -1       102 2.16169E+01
 -1       103 2.16169E+01
 -1       104 2.16169E+01
 -1       105 2.12056E+01
 -1       106 2.12056E+01
 -1       107 2.12056E+01
 -1       108 2.12056E+01
 -1       109 2.14113E+01
 -1       110 2.12056E+01
 -1       111 2.14113E+01
 -1       112 2.12056E+01
 -1       113 2.12056E+01
 -1       114 2.14113E+01
 -1       115 2.12056E+01
 -1       116 2.14113E+01
 -1       117 2.12056E+01
 -1       118 2.12056E+01
 -1       119 2.12056E+01
 -1       120 2.12056E+01
 -1       121 2.12056E+01
 -1       122 2.12056E+01
 -1       123 2.12056E+01
 -1       124 2.12056E+01
 -1       125 2.12056E+01
 -1       126 2.12056E+01
 -1       127 2.12056E+01
 -1       128 2.12056E+01
 -1       129 1.83013E+01
 -1       130 2.10924E+01
 -1       131 2.10924E+01
 -1       132 1.83013E+01
 -1       133 1.96969E+01
 -1       134 2.10924E+01
 -1       135 2.10924E+01
 -1       136 1.96969E+01
 -1       137 1.96969E+01
 -1       138 2.10924E+01
 -1       139 1.96969E+01
 -1       140 1.83013E+01
 -1       141 2.12010E+01
 -1       142 1.81974E+01
 -1       143 2.12010E+01
 -1       144 1.96992E+01
 -1       145 2.11467E+01
 -1       146 1.96992E+01
 -1       147 1.82494E+01
 -1       148 2.15901E+01
 -1       149 1.84246E+01
 -1       150 2.15901E+01
 -1       151 2.00074E+01
 -1       152 2.13955E+01
 -1       153 2.00074E+01
 -1       154 1.83110E+01
 -1       155 2.15901E+01
 -1       156 1.84246E+01
 -1       157 2.15901E+01
 -1       158 2.00074E+01
 -1       159 2.15901E+01
 -1       160 2.00074E+01
 -1       161 1.84246E+01
 -1       162 1.68822E+01
 -1       163 1.68822E+01
 -1       164 1.68822E+01
 -1       165 1.68822E+01
 -1       166 1.92362E+01
 -1       167 1.68822E+01
 -1       168 1.76534E+01
 -1       169 2.13232E+01
 -1       170 1.82228E+01
 -1       171 2.13232E+01
 -1       172 1.97730E+01
 -1       173 1.91027E+01
 -1       174 1.97730E+01
 -1       175 1.75525E+01
 -1       176 2.16169E+01
 -1       177 1.84457E+01
 -1       178 2.16169E+01
 -1       179 2.00313E+01
 -1       180 2.14700E+01
 -1       181 2.00313E+01
 -1       182 1.83342E+01
 -1       183 2.16169E+01
 -1       184 1.84457E+01
 -1       185 2.16169E+01
 -1       186 2.00313E+01
 -1       187 2.16169E+01
 -1       188 2.00313E+01
 -1       189 1.84457E+01
 -1       190 2.12056E+01
 -1       191 2.11534E+01
 -1       192 2.12056E+01
 -1       193 2.11795E+01
 -1       194 2.14113E+01
 -1       195 2.11795E+01
 -1       196 1.97995E+01
 -1       197 2.12056E+01
 -1       198 2.11534E+01
 -1       199 2.12056E+01
 -1       200 2.11795E+01
 -1       201 2.12056E+01
 -1       202 2.11795E+01
 -1       203 2.11534E+01
 -1       204 1.83013E+01
 -1       205 1.83013E+01
 -1       206 2.10924E+01
 -1       207 2.10924E+01
 -1       208 1.96969E+01
 -1       209 1.83013E+01
 -1       210 1.96969E+01
 -1       211 1.96969E+01
 -1       212 1.96969E+01
 -1       213 2.10924E+01
 -1       214 2.10924E+01
 -1       215 2.10924E+01
 -1       216 1.81974E+01
 -1       217 2.12010E+01
 -1       218 1.82494E+01
 -1       219 1.96992E+01
 -1       220 1.96992E+01
 -1       221 2.11467E+01
 -1       222 2.12010E+01
 -1       223 1.84246E+01
 -1       224 2.15901E+01
 -1       225 1.83110E+01
 -1       226 2.00074E+01
 -1       227 2.00074E+01
 -1       228 2.13955E+01
 -1       229 2.15901E+01
 -1       230 1.84246E+01
 -1       231 2.15901E+01
 -1       232 1.84246E+01
 -1       233 2.00074E+01
 -1       234 2.00074E+01
 -1       235 2.15901E+01
 -1       236 2.15901E+01
 -1       237 1.68822E+01
 -1       238 1.68822E+01
 -1       239 1.76534E+01
 -1       240 1.68822E+01
 -1       241 1.68822E+01
 -1       242 1.92362E+01
 -1       243 1.68822E+01
 -1       244 1.82228E+01
 -1       245 2.13232E+01
 -1       246 1.75525E+01
 -1       247 1.97730E+01
 -1       248 1.97730E+01
 -1       249 1.91027E+01
 -1       250 2.13232E+01
 -1       251 1.84457E+01
 -1       252 2.16169E+01
 -1       253 1.83342E+01
 -1       254 2.00313E+01
 -1       255 2.00313E+01
 -1       256 2.14700E+01
 -1       257 2.16169E+01
 -1       258 1.84457E+01
 -1       259 2.16169E+01
 -1       260 1.84457E+01
 -1       261 2.00313E+01
 -1       262 2.00313E+01
 -1       263 2.16169E+01
 -1       264 2.16169E+01
 -1       265 2.11534E+01
 -1       266 2.12056E+01
 -1       267 1.97995E+01
 -1       268 2.11795E+01
 -1       269 2.11795E+01
 -1       270 2.14113E+01
 -1       271 2.12056E+01
 -1       272 2.11534E+01
 -1       273 2.12056E+01
 -1       274 2.11534E+01
 -1       275 2.11795E+01
 -1       276 2.11795E+01
 -1       277 2.12056E+01
 -1       278 2.12056E+01
 -1       279 2.10924E+01
 -1       280 2.10924E+01
 -1       281 2.10924E+01
 -1       282 2.10924E+01
 -1       283 2.10924E+01
 -1       284 2.10924E+01
 -1       285 2.10924E+01
 -1       286 2.12010E+01
 -1       287 2.12010E+01
 -1       288 2.11467E+01
 -1       289 2.12010E+01
 -1       290 2.15901E+01
 -1       291 2.15901E+01
 -1       292 2.13955E+01
 -1       293 2.15901E+01
 -1       294 2.15901E+01
 -1       295 2.15901E+01
 -1       296 2.15901E+01
 -1       297 2.15901E+01
 -1       298 1.54450E+01
 -1       299 1.61636E+01
 -1       300 1.85175E+01
 -1       301 1.61636E+01
 -1       302 2.13232E+01
 -1       303 2.13232E+01
 -1       304 1.83841E+01
 -1       305 2.13232E+01
 -1       306 2.16169E+01
 -1       307 2.16169E+01
 -1       308 2.14700E+01
 -1       309 2.16169E+01
 -1       310 2.16169E+01
 -1       311 2.16169E+01
 -1       312 2.16169E+01
 -1       313 2.16169E+01
 -1       314 2.12056E+01
 -1       315 2.12056E+01
 -1       316 2.14113E+01
 -1       317 2.12056E+01
 -1       318 2.12056E+01
 -1       319 2.12056E+01
 -1       320 2.12056E+01
 -1       321 2.12056E+01
 -3
    1PSTEP                        29           1           1          
    1PGM                1.000000E+00                                  
    1PGK                6.941641E+09                                  
    1PHID                         -1                                  
    1PSUBC                         0                                  
    1PMODE                         8                                  
  100CL  108 13260.23419         321                     2    8MODAL      1
 -4  DISP        4    1
 -5  D1          1    2    1    0
 -5  D2          1    2    2    0
 -5  D3          1    2    3    0
 -5  ALL         1    2    0    0    1ALL
 -1         1 0.00000E+00 0.00000E+00 0.00000E+00
 -1         2 0.00000E+00 0.00000E+00 0.00000E+00
 -1         3 1.80065E+00 4.57120E-01-1.04678E+00
 -1         4 1.78267E+00 5.09723E-01-1.28045E+00
 -1         5 0.00000E+00 0.00000E+00 0.00000E+00
 -1         6 0.00000E+00 0.00000E+00 0.00000E+00
 -1         7 1.78407E+00 4.63607E-01-3.56715E-13
 -1         8 1.75911E+00 4.67914E-01-2.72014E-01
 -1         9 0.00000E+00 0.00000E+00 0.00000E+00
 -1        10 7.09948E-01 1.46380E-01-6.24022E-01
 -1        11 1.80640E+00 4.78334E-01-1.15830E+00
 -1        12 6.82246E-01 3.23418E-01-7.92154E-01
 -1        13 0.00000E+00 0.00000E+00 0.00000E+00
 -1        14 0.00000E+00 0.00000E+00 0.00000E+00
 -1        15 1.77515E+00 4.64054E-01-4.69690E-01
 -1        16 1.75464E+00 4.91973E-01-7.17763E-01
 -1        17 0.00000E+00 0.00000E+00 0.00000E+00
 -1        18 6.26492E-01 1.62799E-01-1.57208E-13
 -1        19 1.78579E+00 4.61288E-01-1.22053E-01
 -1        20 5.63306E-01 1.84486E-01-1.62157E-01
 -1        21 4.21863E+00 1.12386E+00-8.19029E-01
 -1        22 4.24434E+00 1.00062E+00-1.01543E+00
 -1        23 4.27289E+00 1.11035E+00-7.14317E-13
 -1        24 4.32489E+00 1.09625E+00-2.12832E-01
 -1        25 3.09428E+00 8.10263E-01-1.06152E+00
 -1        26 4.21484E+00 1.06700E+00-9.16069E-01
 -1        27 3.10270E+00 7.74567E-01-1.31368E+00
 -1        28 4.26367E+00 1.11301E+00-3.84421E-01
 -1        29 4.30187E+00 1.04567E+00-5.84706E-01
 -1        30 3.10323E+00 8.06402E-01-5.36293E-13
 -1        31 4.28312E+00 1.10795E+00-9.98952E-02
 -1        32 3.11809E+00 8.04075E-01-2.75845E-01
 -1        33 5.05708E+00 1.35838E+00 2.03784E-01
 -1        34 5.09853E+00 1.16082E+00 2.57731E-01
 -1        35 5.14329E+00 1.33653E+00-1.06162E-12
 -1        36 5.22736E+00 1.31413E+00 5.29552E-02
 -1        37 4.93057E+00 1.31925E+00-3.59433E-01
 -1        38 5.05533E+00 1.26555E+00 2.30799E-01
 -1        39 4.96826E+00 1.14793E+00-4.43329E-01
 -1        40 5.12301E+00 1.34177E+00 1.03305E-01
 -1        41 5.18548E+00 1.23259E+00 1.56880E-01
 -1        42 5.00300E+00 1.30007E+00-8.87151E-13
 -1        43 5.16348E+00 1.33126E+00 2.68447E-02
 -1        44 5.07682E+00 1.28125E+00-9.34017E-02
 -1        45 3.41706E+00 9.18758E-01 1.26455E+00
 -1        46 3.44611E+00 7.81290E-01 1.57932E+00
 -1        47 3.47710E+00 9.03554E-01-1.38617E-12
 -1        48 3.53561E+00 8.87952E-01 3.28605E-01
 -1        49 4.53631E+00 1.21836E+00 7.76063E-01
 -1        50 3.41542E+00 8.54371E-01 1.42105E+00
 -1        51 4.57503E+00 1.04018E+00 9.70180E-01
 -1        52 3.46369E+00 9.07091E-01 6.10125E-01
 -1        53 3.50719E+00 8.31251E-01 9.28408E-01
 -1        54 4.61136E+00 1.19830E+00-1.22774E-12
 -1        55 3.49071E+00 9.00069E-01 1.58546E-01
 -1        56 4.68853E+00 1.17880E+00 2.01667E-01
 -1        57 5.71098E-02 1.15016E-02 1.65718E+00
 -1        58 5.40133E-02 2.59353E-02 2.06799E+00
 -1        59 5.06936E-02 1.31732E-02-1.68052E-12
 -1        60 4.42608E-02 1.48405E-02 4.30633E-01
 -1        61 1.84908E+00 4.95072E-01 1.56704E+00
 -1        62 5.71927E-02 1.82968E-02 1.86120E+00
 -1        63 1.86345E+00 4.29254E-01 1.95521E+00
 -1        64 5.22641E-02 1.27602E-02 7.96884E-01
 -1        65 4.75022E-02 2.08080E-02 1.21275E+00
 -1        66 1.87674E+00 4.87686E-01-1.53544E-12
 -1        67 4.91044E-02 1.35813E-02 2.07077E-01
 -1        68 1.90516E+00 4.80500E-01 4.07210E-01
 -1        69-3.13576E+00-8.52653E-01 1.09263E+00
 -1        70-3.17124E+00-6.85103E-01 1.36220E+00
 -1        71-3.20918E+00-8.33933E-01-1.93467E-12
 -1        72-3.28122E+00-8.14856E-01 2.83929E-01
 -1        73-1.69319E+00-4.61332E-01 1.48189E+00
 -1        74-3.13421E+00-7.73996E-01 1.22641E+00
 -1        75-1.71375E+00-3.66228E-01 1.84775E+00
 -1        76-3.19211E+00-8.38400E-01 5.23452E-01
 -1        77-3.24562E+00-7.45690E-01 7.96703E-01
 -1        78-1.73385E+00-4.50557E-01-1.81488E-12
 -1        79-3.22637E+00-8.29497E-01 1.36024E-01
 -1        80-1.77532E+00-4.39990E-01 3.85082E-01
 -1        81-4.26474E+00-1.16147E+00-1.63146E-01
 -1        82-4.31469E+00-9.25608E-01-2.06830E-01
 -1        83-4.36811E+00-1.13509E+00-2.14412E-12
 -1        84-4.46962E+00-1.10823E+00-4.23949E-02
 -1        85-4.04456E+00-1.09839E+00 5.12453E-01
 -1        86-4.26258E+00-1.05073E+00-1.85117E-01
 -1        87-4.09033E+00-8.86929E-01 6.37049E-01
 -1        88-4.34403E+00-1.14139E+00-8.34607E-02
 -1        89-4.41944E+00-1.01086E+00-1.26770E-01
 -1        90-4.13477E+00-1.07446E+00-2.04625E-12
 -1        91-4.39236E+00-1.12883E+00-2.16880E-02
 -1        92-4.22686E+00-1.05101E+00 1.33165E-01
 -1        93-2.49313E+00-6.90700E-01-1.47673E+00
 -1        94-2.53318E+00-5.02049E-01-1.84978E+00
 -1        95-2.57611E+00-6.69426E-01-2.30105E-12
 -1        96-2.65798E+00-6.47861E-01-3.83742E-01
 -1        97-3.73546E+00-1.02043E+00-8.52950E-01
 -1        98-2.49164E+00-6.02036E-01-1.66265E+00
 -1        99-3.78330E+00-7.99025E-01-1.06870E+00
 -1       100-2.55644E+00-6.74570E-01-7.20632E-01
 -1       101-2.61718E+00-5.69975E-01-1.09624E+00
 -1       102-3.83024E+00-9.95322E-01-2.23149E-12
 -1       103-2.59591E+00-6.64312E-01-1.87263E-01
 -1       104-3.92686E+00-9.70691E-01-2.21647E-01
 -1       105 1.56840E+00 3.90228E-01-2.26100E+00
 -1       106 1.55258E+00 4.63321E-01-2.83555E+00
 -1       107 1.53563E+00 3.99048E-01-2.39897E-12
 -1       108 1.50169E+00 4.07563E-01-5.87541E-01
 -1       109-6.63517E-01-2.02774E-01-1.94973E+00
 -1       110 1.56821E+00 4.24885E-01-2.54747E+00
 -1       111-6.91844E-01-6.99088E-02-2.44178E+00
 -1       112 1.54460E+00 3.96709E-01-1.10966E+00
 -1       113 1.51955E+00 4.37932E-01-1.68749E+00
 -1       114-7.21719E-01-1.87545E-01-2.35889E-12
 -1       115 1.52663E+00 4.01379E-01-2.88355E-01
 -1       116-7.80325E-01-1.72421E-01-5.06654E-01
 -1       117 6.44163E+00 1.67169E+00-2.41524E+00
 -1       118 6.43865E+00 1.67087E+00-3.03353E+00
 -1       119 6.43772E+00 1.67290E+00-2.43100E-12
 -1       120 6.43306E+00 1.67391E+00-6.27621E-01
 -1       121 3.99538E+00 1.03105E+00-2.38878E+00
 -1       122 6.43915E+00 1.67225E+00-2.72509E+00
 -1       123 3.98974E+00 1.05885E+00-2.99958E+00
 -1       124 6.44130E+00 1.67211E+00-1.20411E+00
 -1       125 6.43741E+00 1.67240E+00-1.82604E+00
 -1       126 3.98115E+00 1.03454E+00-2.42534E-12
 -1       127 6.43471E+00 1.67383E+00-3.12899E-01
 -1       128 3.96775E+00 1.03824E+00-6.20744E-01
 -1       129 0.00000E+00 0.00000E+00 0.00000E+00
 -1       130 0.00000E+00 0.00000E+00 0.00000E+00
 -1       131 1.80065E+00 4.57120E-01 1.04678E+00
 -1       132 1.75677E+00 4.10031E-01 7.52236E-01
 -1       133 0.00000E+00 0.00000E+00 0.00000E+00
 -1       134 0.00000E+00 0.00000E+00 0.00000E+00
 -1       135 1.77515E+00 4.64054E-01 4.69690E-01
 -1       136 1.74217E+00 4.43578E-01 1.76135E-01
 -1       137 0.00000E+00 0.00000E+00 0.00000E+00
 -1       138 7.09948E-01 1.46380E-01 6.24022E-01
 -1       139 1.79383E+00 4.30341E-01 9.26017E-01
 -1       140 6.00800E-01 9.99237E-03 4.65374E-01
 -1       141 4.21863E+00 1.12386E+00 8.19029E-01
 -1       142 4.30136E+00 1.22006E+00 5.96547E-01
 -1       143 4.26367E+00 1.11301E+00 3.84421E-01
 -1       144 4.33023E+00 1.15204E+00 1.58817E-01
 -1       145 3.09428E+00 8.10263E-01 1.06152E+00
 -1       146 4.24248E+00 1.17613E+00 7.22858E-01
 -1       147 3.12037E+00 8.42550E-01 7.71761E-01
 -1       148 5.05708E+00 1.35838E+00-2.03784E-01
 -1       149 5.18998E+00 1.51274E+00-1.51412E-01
 -1       150 5.12301E+00 1.34177E+00-1.03305E-01
 -1       151 5.23115E+00 1.40650E+00-5.09648E-02
 -1       152 4.93057E+00 1.31925E+00 3.59433E-01
 -1       153 5.10052E+00 1.44130E+00-1.76789E-01
 -1       154 5.04803E+00 1.45489E+00 2.60447E-01
 -1       155 3.41706E+00 9.18758E-01-1.26455E+00
 -1       156 3.50977E+00 1.02626E+00-9.27817E-01
 -1       157 3.46369E+00 9.07091E-01-6.10125E-01
 -1       158 3.53896E+00 9.51955E-01-2.70847E-01
 -1       159 4.53631E+00 1.21836E+00-7.76063E-01
 -1       160 3.44679E+00 9.76632E-01-1.10941E+00
 -1       161 4.65790E+00 1.35908E+00-5.69961E-01
 -1       162 5.71098E-02 1.15016E-02-1.65718E+00
 -1       163 4.73812E-02 4.12978E-04-1.21490E+00
 -1       164 5.22641E-02 1.27602E-02-7.96884E-01
 -1       165 4.41843E-02 8.05492E-03-3.51043E-01
 -1       166 1.84908E+00 4.95072E-01-1.56704E+00
 -1       167 5.38787E-02 5.52870E-03-1.45484E+00
 -1       168 1.89410E+00 5.47178E-01-1.14864E+00
 -1       169-3.13576E+00-8.52653E-01-1.09263E+00
 -1       170-3.24869E+00-9.83172E-01-8.00264E-01
 -1       171-3.19211E+00-8.38400E-01-5.23452E-01
 -1       172-3.28431E+00-8.93175E-01-2.28549E-01
 -1       173-1.69319E+00-4.61332E-01-1.48189E+00
 -1       174-3.17254E+00-9.22863E-01-9.59987E-01
 -1       175-1.75784E+00-5.35897E-01-1.08552E+00
 -1       176-4.26474E+00-1.16147E+00 1.63146E-01
 -1       177-4.42371E+00-1.34514E+00 1.21509E-01
 -1       178-4.34403E+00-1.14139E+00 8.34607E-02
 -1       179-4.47389E+00-1.21850E+00 4.19549E-02
 -1       180-4.04456E+00-1.09839E+00-5.12453E-01
 -1       181-4.31654E+00-1.26027E+00 1.41272E-01
 -1       182-4.18841E+00-1.26437E+00-3.74253E-01
 -1       183-2.49313E+00-6.90700E-01 1.47673E+00
 -1       184-2.62025E+00-8.37113E-01 1.08671E+00
 -1       185-2.55644E+00-6.74570E-01 7.20632E-01
 -1       186-2.66069E+00-7.36200E-01 3.28332E-01
 -1       187-3.73546E+00-1.02043E+00 8.52950E-01
 -1       188-2.53484E+00-7.69464E-01 1.29246E+00
 -1       189-3.88591E+00-1.19389E+00 6.27839E-01
 -1       190 1.56840E+00 3.90228E-01 2.26100E+00
 -1       191 1.51921E+00 3.34909E-01 1.66583E+00
 -1       192 1.54460E+00 3.96709E-01 1.10966E+00
 -1       193 1.50282E+00 3.72687E-01 5.12050E-01
 -1       194-6.63517E-01-2.02774E-01 1.94973E+00
 -1       195 1.55125E+00 3.60505E-01 1.97590E+00
 -1       196-7.53082E-01-3.05568E-01 1.43449E+00
 -1       197 6.44163E+00 1.67169E+00 2.41524E+00
 -1       198 6.43991E+00 1.67573E+00 1.78214E+00
 -1       199 6.44130E+00 1.67211E+00 1.20411E+00
 -1       200 6.43772E+00 1.67427E+00 5.71674E-01
 -1       201 3.99538E+00 1.03105E+00 2.38878E+00
 -1       202 6.43964E+00 1.67347E+00 2.10203E+00
 -1       203 3.97743E+00 1.01148E+00 1.76219E+00
 -1       204 0.00000E+00 0.00000E+00 0.00000E+00
 -1       205 1.75677E+00 4.10031E-01-7.52236E-01
 -1       206 0.00000E+00 0.00000E+00 0.00000E+00
 -1       207 1.75911E+00 4.67914E-01 2.72014E-01
 -1       208 0.00000E+00 0.00000E+00 0.00000E+00
 -1       209 6.00800E-01 9.99237E-03-4.65374E-01
 -1       210 1.79383E+00 4.30341E-01-9.26017E-01
 -1       211 0.00000E+00 0.00000E+00 0.00000E+00
 -1       212 1.74217E+00 4.43578E-01-1.76135E-01
 -1       213 0.00000E+00 0.00000E+00 0.00000E+00
 -1       214 5.63306E-01 1.84486E-01 1.62157E-01
 -1       215 1.78579E+00 4.61288E-01 1.22053E-01
 -1       216 4.30136E+00 1.22006E+00-5.96547E-01
 -1       217 4.32489E+00 1.09625E+00 2.12832E-01
 -1       218 3.12037E+00 8.42550E-01-7.71761E-01
 -1       219 4.24248E+00 1.17613E+00-7.22858E-01
 -1       220 4.33023E+00 1.15204E+00-1.58817E-01
 -1       221 3.11809E+00 8.04075E-01 2.75845E-01
 -1       222 4.28312E+00 1.10795E+00 9.98952E-02
 -1       223 5.18998E+00 1.51274E+00 1.51412E-01
 -1       224 5.22736E+00 1.31413E+00-5.29552E-02
 -1       225 5.04803E+00 1.45489E+00-2.60447E-01
 -1       226 5.10052E+00 1.44130E+00 1.76789E-01
 -1       227 5.23115E+00 1.40650E+00 5.09648E-02
 -1       228 5.07682E+00 1.28125E+00 9.34017E-02
 -1       229 5.16348E+00 1.33126E+00-2.68447E-02
 -1       230 3.50977E+00 1.02626E+00 9.27817E-01
 -1       231 3.53561E+00 8.87952E-01-3.28605E-01
 -1       232 4.65790E+00 1.35908E+00 5.69961E-01
 -1       233 3.44679E+00 9.76632E-01 1.10941E+00
 -1       234 3.53896E+00 9.51955E-01 2.70847E-01
 -1       235 4.68853E+00 1.17880E+00-2.01667E-01
 -1       236 3.49071E+00 9.00069E-01-1.58546E-01
 -1       237 4.73812E-02 4.12978E-04 1.21490E+00
 -1       238 4.42608E-02 1.48405E-02-4.30633E-01
 -1       239 1.89410E+00 5.47178E-01 1.14864E+00
 -1       240 5.38787E-02 5.52870E-03 1.45484E+00
 -1       241 4.41843E-02 8.05492E-03 3.51043E-01
 -1       242 1.90516E+00 4.80500E-01-4.07210E-01
 -1       243 4.91044E-02 1.35813E-02-2.07077E-01
 -1       244-3.24869E+00-9.83172E-01 8.00264E-01
 -1       245-3.28122E+00-8.14856E-01-2.83929E-01
 -1       246-1.75784E+00-5.35897E-01 1.08552E+00
 -1       247-3.17254E+00-9.22863E-01 9.59987E-01
 -1       248-3.28431E+00-8.93175E-01 2.28549E-01
 -1       249-1.77532E+00-4.39990E-01-3.85082E-01
 -1       250-3.22637E+00-8.29497E-01-1.36024E-01
 -1       251-4.42371E+00-1.34514E+00-1.21509E-01
 -1       252-4.46962E+00-1.10823E+00 4.23949E-02
 -1       253-4.18841E+00-1.26437E+00 3.74253E-01
 -1       254-4.31654E+00-1.26027E+00-1.41272E-01
 -1       255-4.47389E+00-1.21850E+00-4.19549E-02
 -1       256-4.22686E+00-1.05101E+00-1.33165E-01
 -1       257-4.39236E+00-1.12883E+00 2.16880E-02
 -1       258-2.62025E+00-8.37113E-01-1.08671E+00
 -1       259-2.65798E+00-6.47861E-01 3.83742E-01
 -1       260-3.88591E+00-1.19389E+00-6.27839E-01
 -1       261-2.53484E+00-7.69464E-01-1.29246E+00
 -1       262-2.66069E+00-7.36200E-01-3.28332E-01
 -1       263-3.92686E+00-9.70691E-01 2.21647E-01
 -1       264-2.59591E+00-6.64312E-01 1.87263E-01
 -1       265 1.51921E+00 3.34909E-01-1.66583E+00
 -1       266 1.50169E+00 4.07563E-01 5.87541E-01
 -1       267-7.53082E-01-3.05568E-01-1.43449E+00
 -1       268 1.55125E+00 3.60505E-01-1.97590E+00
 -1       269 1.50282E+00 3.72687E-01-5.12050E-01
 -1       270-7.80325E-01-1.72421E-01 5.06654E-01
 -1       271 1.52663E+00 4.01379E-01 2.88355E-01
 -1       272 6.43991E+00 1.67573E+00-1.78214E+00
 -1       273 6.43306E+00 1.67391E+00 6.27621E-01
 -1       274 3.97743E+00 1.01148E+00-1.76219E+00
 -1       275 6.43964E+00 1.67347E+00-2.10203E+00
 -1       276 6.43772E+00 1.67427E+00-5.71674E-01
 -1       277 3.96775E+00 1.03824E+00 6.20744E-01
 -1       278 6.43471E+00 1.67383E+00 3.12899E-01
 -1       279 0.00000E+00 0.00000E+00 0.00000E+00
 -1       280 1.78267E+00 5.09723E-01 1.28045E+00
 -1       281 0.00000E+00 0.00000E+00 0.00000E+00
 -1       282 1.75464E+00 4.91973E-01 7.17763E-01
 -1       283 0.00000E+00 0.00000E+00 0.00000E+00
 -1       284 6.82246E-01 3.23418E-01 7.92154E-01
 -1       285 1.80640E+00 4.78334E-01 1.15830E+00
 -1       286 4.24434E+00 1.00062E+00 1.01543E+00
 -1       287 4.30187E+00 1.04567E+00 5.84706E-01
 -1       288 3.10270E+00 7.74567E-01 1.31368E+00
 -1       289 4.21484E+00 1.06700E+00 9.16069E-01
 -1       290 5.09853E+00 1.16082E+00-2.57731E-01
 -1       291 5.18548E+00 1.23259E+00-1.56880E-01
 -1       292 4.96826E+00 1.14793E+00 4.43329E-01
 -1       293 5.05533E+00 1.26555E+00-2.30799E-01
 -1       294 3.44611E+00 7.81290E-01-1.57932E+00
 -1       295 3.50719E+00 8.31251E-01-9.28408E-01
 -1       296 4.57503E+00 1.04018E+00-9.70180E-01
 -1       297 3.41542E+00 8.54371E-01-1.42105E+00
 -1       298 5.40133E-02 2.59353E-02-2.06799E+00
 -1       299 4.75022E-02 2.08080E-02-1.21275E+00
 -1       300 1.86345E+00 4.29254E-01-1.95521E+00
 -1       301 5.71927E-02 1.82968E-02-1.86120E+00
 -1       302-3.17124E+00-6.85103E-01-1.36220E+00
 -1       303-3.24562E+00-7.45690E-01-7.96703E-01
 -1       304-1.71375E+00-3.66228E-01-1.84775E+00
 -1       305-3.13421E+00-7.73996E-01-1.22641E+00
 -1       306-4.31469E+00-9.25608E-01 2.06830E-01
 -1       307-4.41944E+00-1.01086E+00 1.26770E-01
 -1       308-4.09033E+00-8.86929E-01-6.37049E-01
 -1       309-4.26258E+00-1.05073E+00 1.85117E-01
 -1       310-2.53318E+00-5.02049E-01 1.84978E+00
 -1       311-2.61718E+00-5.69975E-01 1.09624E+00
 -1       312-3.78330E+00-7.99025E-01 1.06870E+00
 -1       313-2.49164E+00-6.02036E-01 1.66265E+00
 -1       314 1.55258E+00 4.63321E-01 2.83555E+00
 -1       315 1.51955E+00 4.37932E-01 1.68749E+00
 -1       316-6.91844E-01-6.99088E-02 2.44178E+00
 -1       317 1.56821E+00 4.24885E-01 2.54747E+00
 -1       318 6.43865E+00 1.67087E+00 3.03353E+00
 -1       319 6.43741E+00 1.67240E+00 1.82604E+00
 -1       320 3.98974E+00 1.05885E+00 2.99958E+00
 -1       321 6.43915E+00 1.67225E+00 2.72509E+00
 -3
    1PSTEP                        30           1           1          
    1PGM                1.000000E+00                                  
    1PGK                6.941641E+09                                  
    1PHID                         -1                                  
    1PSUBC                         0                                  
    1PMODE                         8                                  
  100CL  108 13260.23419         321                     2    8MODAL      1
 -4  STRESS      6    1
 -5  SXX         1    4    1    1
 -5  SYY         1    4    2    2
 -5  SZZ         1    4    3    3
 -5  SXY         1    4    1    2
 -5  SYZ         1    4    2    3
 -5  SZX         1    4    3    1
 -1         1-2.28759E+13-2.28759E+13-5.33768E+13-1.84737E+05 6.33188E+12 7.64312E+12
 -1         2-1.75590E+13-1.75590E+13-4.09706E+13-3.22877E+04 1.03702E+12 8.39294E+12
 -1         3 3.08009E+11-9.60949E+11-9.97079E+12-1.46207E+11 2.94720E+12 1.09993E+12
 -1         4 2.89362E+11-2.15190E+11-1.12196E+13-7.71465E+11-8.70820E+11 1.89093E+12
 -1         5-4.56285E+12-4.56285E+12-1.06466E+13-1.24251E+05 2.18098E+12 3.99070E+12
 -1         6-3.29801E+00-3.29036E+00-7.68910E+00 3.54385E-03 1.51510E+12 5.83048E+12
 -1         7-5.82458E-01-4.43665E-01-8.72754E+00 9.09882E-02 2.42009E+12 9.31308E+12
 -1         8-2.49711E+11 8.00388E+10-2.59100E+12-5.62640E+11 2.85826E+11 1.13416E+13
 -1         9-2.01533E+13-2.01533E+13-4.70249E+13 8.32624E+06 3.64349E+12 8.13755E+12
 -1        10-2.26507E+12-1.07028E+12-2.29834E+13 2.67277E+11 1.56679E+12 2.72871E+12
 -1        11 1.68000E+11-9.60525E+11-1.07344E+13-2.36153E+11 9.60797E+11 1.28891E+12
 -1        12-2.41452E+12-1.25889E+12-2.79921E+13 1.21857E+12 1.22961E+12 2.33294E+12
 -1        13-1.30112E+13-1.30112E+13-3.03599E+13 1.15993E+07 4.28203E+12 5.68609E+12
 -1        14-8.12901E+12-8.12901E+12-1.89680E+13 1.48594E+06 1.30598E+12 6.97314E+12
 -1        15-1.18933E+12-1.00285E+12-5.28191E+12-1.01563E+10 2.62269E+12 5.27920E+12
 -1        16-1.32546E+12-5.67045E+11-7.15012E+12-5.91094E+11-2.26531E+11 6.66119E+12
 -1        17-2.11239E+12-2.11239E+12-4.92901E+12 5.71827E+06 1.81203E+12 5.02574E+12
 -1        18 1.08032E-01 1.37268E-01-7.41626E+00 2.92664E-02 1.57593E+12 6.06456E+12
 -1        19-2.60599E+11-3.09058E+11-1.37255E+12-3.90839E+10 1.37185E+12 1.00928E+13
 -1        20-2.78121E+11-5.88597E+11-5.97245E+12 1.02855E+12 7.09080E+11 6.02939E+12
 -1        21-3.10395E+11 2.49089E+11 1.63381E+13 5.05871E+10 1.72359E+12 1.66018E+12
 -1        22-1.32545E+11 1.03626E+11 2.03950E+13 1.25068E+11 1.53891E+11 1.87836E+12
 -1        23-5.88791E-01-1.42670E-01-7.55048E+00 1.40556E-01 1.43269E+12 5.51334E+12
 -1        24 6.47279E+10-8.06589E+10 4.24560E+12 1.94672E+11 4.31414E+11 6.63281E+12
 -1        25 1.32012E+12 5.15009E+11 5.33332E+12-5.92215E+10 1.78443E+12-1.63094E+11
 -1        26-2.50614E+11 2.45633E+11 1.83240E+13-2.45387E+10 8.64061E+11 1.53265E+12
 -1        27 1.37818E+12 8.08428E+11 6.22135E+12-2.91523E+11-3.17469E+11 2.78185E+11
 -1        28 5.92740E+10 1.12651E+11 7.68125E+12 3.27388E+09 1.51119E+12 3.74872E+12
 -1        29 1.24862E+11-5.61233E+10 1.17504E+13 1.19762E+11 3.30263E+11 4.38146E+12
 -1        30-2.94495E-02 5.11169E-02-7.49956E+00 9.78775E-02 1.42925E+12 5.50012E+12
 -1        31 2.92732E+10 1.54029E+10 1.99604E+12 1.25987E+10 9.74137E+11 5.81542E+12
 -1        32 1.33830E+11 3.43044E+11 1.38591E+12-2.27899E+11-4.23814E+10 6.86693E+12
 -1        33 6.01956E+11 6.66549E+11 2.61934E+13-1.65650E+09 8.45972E+10 6.90295E+10
 -1        34 7.87303E+11 7.09286E+11 3.25710E+13-3.89052E+10 1.39013E+10 8.00045E+10
 -1        35-1.95534E-01 6.82793E-02-7.29288E+00 2.10333E-02 7.02987E+10 2.70526E+11
 -1        36 1.73208E+11 1.56424E+11 6.80658E+12-6.37463E+09 1.79379E+10 3.25551E+11
 -1        37-9.17369E+09 3.01727E+10 2.14859E+13 4.03632E+09 6.93009E+11 1.09568E+11
 -1        38 6.68194E+11 7.11046E+11 2.93608E+13-5.06209E+10 4.15563E+10 7.12456E+10
 -1        39 1.17372E+11-3.18288E+10 2.67629E+13-3.34545E+10-1.00229E+11 2.46268E+11
 -1        40 1.84273E+11 1.67169E+11 1.25165E+13-7.31120E+09 7.59731E+10 1.64575E+11
 -1        41 3.62376E+11 2.28667E+11 1.90158E+13-3.53740E+10 1.54973E+10 1.97478E+11
 -1        42-1.67999E-01 6.44073E-02-7.32698E+00-5.06401E-03 5.40591E+11 2.08033E+12
 -1        43 4.34404E+10 4.78849E+10 3.25252E+12-2.81353E+10 4.27661E+10 2.92363E+11
 -1        44 7.84063E+09-2.38386E+09 5.58331E+12 1.55328E+10 2.84723E+10 2.66687E+12
 -1        45 2.53434E+11 3.97191E+11 1.81555E+13 9.05783E+09-1.43833E+12-1.35811E+12
 -1        46 3.97246E+11 3.95524E+11 2.26009E+13 8.40773E+09-1.43379E+11-1.57530E+12
 -1        47 3.72749E-01-2.30911E-01-6.39359E+00-1.42601E-01-1.19857E+12-4.61240E+12
 -1        48 1.03214E+11 6.58570E+10 4.71786E+12 3.48568E+10-3.52917E+11-5.53506E+12
 -1        49 2.95482E+11 1.31364E+11 2.24048E+13-1.45922E+10-5.32476E+11-3.99754E+10
 -1        50 3.11173E+11 4.30523E+11 2.03700E+13-2.85809E+10-7.06167E+11-1.29091E+12
 -1        51 3.83125E+11 1.38734E+11 2.79106E+13-9.88749E+10 9.77209E+10-1.56152E+11
 -1        52 1.28618E+11 1.25836E+11 8.70922E+12-3.53362E+09-1.26798E+12-3.08426E+12
 -1        53 2.49182E+11 1.30433E+11 1.32296E+13 7.23345E+09-2.81727E+11-3.62427E+12
 -1        54 3.97461E-01 4.15192E-02-6.68462E+00-1.67715E-01-4.13532E+11-1.59137E+12
 -1        55 3.26995E+10 3.34224E+10 2.26317E+12-1.35982E+10-8.01472E+11-4.87951E+12
 -1        56 3.41361E+10 7.67836E+10 5.82208E+12-5.61545E+10-1.03879E+10-2.04910E+12
 -1        57 2.07684E+10 1.45889E+10-1.76063E+12-8.24662E+08-2.05746E+12-1.93925E+12
 -1        58 2.33193E+10 1.77624E+10-2.22087E+12-3.33823E+09-2.02525E+11-2.24913E+12
 -1        59 8.14820E-01 1.69999E+00-5.21770E+00 4.14102E-01-1.71543E+12-6.60138E+12
 -1        60 3.79106E+09 5.39684E+09-4.57514E+11-3.17350E+09-5.03932E+11-7.91762E+12
 -1        61 7.69581E+10 4.04996E+10 8.28064E+12-3.08185E+09-1.36732E+12-8.43227E+10
 -1        62 2.12327E+10 1.47876E+10-1.99272E+12-1.07838E+09-1.01406E+12-1.84056E+12
 -1        63 1.15911E+11 3.26774E+10 1.03070E+13-3.09218E+10 2.42797E+11-3.84791E+11
 -1        64 2.19204E+09 1.13696E+09-8.92141E+11-2.38375E+08-1.81379E+12-4.41698E+12
 -1        65 5.58326E+09 5.24330E+09-1.35204E+12-2.96850E+09-4.00884E+11-5.18784E+12
 -1        66 4.52591E-01 6.68655E-01-5.84733E+00 3.75457E-02-1.06574E+12-4.10121E+12
 -1        67 2.95449E+08 5.69620E+08-2.31831E+11-9.17324E+08-1.14779E+12-6.97990E+12
 -1        68 1.05242E+10 1.99982E+10 2.15180E+12-1.18597E+10-2.19120E+10-5.26178E+12
 -1        69-2.68521E+11-3.73859E+11-2.17953E+13-6.00491E+09-1.48510E+12-1.40256E+12
 -1        70-3.95987E+11-3.81024E+11-2.71967E+13-3.75699E+08-1.48978E+11-1.62635E+12
 -1        71-6.03203E-01-9.40907E-01-5.31897E+00 1.49535E-01-1.23846E+12-4.76588E+12
 -1        72-9.71504E+10-6.97776E+10-5.66370E+12-2.31084E+10-3.64468E+11-5.71501E+12
 -1        73-8.34859E+10-3.61821E+10-1.18918E+13 3.74171E+09-1.38420E+12-8.75061E+10
 -1        74-3.18621E+11-4.04656E+11-2.44879E+13 2.68468E+10-7.34016E+11-1.33193E+12
 -1        75-1.19357E+11-3.66726E+10-1.48689E+13 3.13922E+10 2.44273E+11-3.89392E+11
 -1        76-1.17351E+11-1.12214E+11-1.05577E+13 3.55201E+09-1.30941E+12-3.18928E+12
 -1        77-2.29075E+11-1.26683E+11-1.60349E+13 3.27171E+07-2.90500E+11-3.74575E+12
 -1        78-8.49152E-02 2.34489E-01-5.29456E+00 3.02674E-01-1.07963E+12-4.15468E+12
 -1        79-2.91597E+10-3.04946E+10-2.74351E+12 1.36690E+10-8.28763E+11-5.03894E+12
 -1        80-9.40222E+09-2.16945E+10-3.09019E+12 1.43990E+10-2.27392E+10-5.32675E+12
 -1        81-3.61680E+11-5.06180E+11-3.06285E+13-8.45527E+09-1.22118E+11-1.15462E+11
 -1        82-5.33133E+11-5.13866E+11-3.82292E+13-1.96146E+09-1.66281E+10-1.34034E+11
 -1        83-3.95790E-01-3.95443E-01-4.19400E+00 3.52425E-01-1.02573E+11-3.94726E+11
 -1        84-1.31535E+11-9.39858E+10-7.95909E+12-3.25380E+10-3.00037E+10-4.69942E+11
 -1        85-2.09259E+11-9.15470E+10-2.64622E+13 9.59899E+09-6.25837E+11-4.09875E+10
 -1        86-4.28851E+11-5.47896E+11-3.44191E+13 3.63679E+10-6.48811E+10-1.09945E+11
 -1        87-2.92140E+11-9.16088E+10-3.30656E+13 7.71583E+10 1.06791E+11-1.74656E+11
 -1        88-1.59537E+11-1.52507E+11-1.48523E+13 4.75099E+09-1.07987E+11-2.63922E+11
 -1        89-3.10736E+11-1.70568E+11-2.25566E+13-1.12194E+09-2.48850E+10-3.09178E+11
 -1        90-7.08664E-01-7.18452E-01-4.83501E+00 2.18690E-01-4.89110E+11-1.88222E+12
 -1        91-3.96302E+10-4.14571E+10-3.85950E+12 1.82830E+10-6.85825E+10-4.15559E+11
 -1        92-2.37893E+10-5.43777E+10-6.87644E+12 3.69393E+10-1.06509E+10-2.40837E+12
 -1        93-1.87404E+11-2.82045E+11-2.41776E+13-6.32440E+09 1.14513E+12 1.06577E+12
 -1        94-2.85497E+11-2.82536E+11-3.02376E+13-3.17899E+09 1.03472E+11 1.23611E+12
 -1        95-3.84468E-01-3.09280E-01-2.88203E+00-1.85080E-02 9.51995E+11 3.66351E+12
 -1        96-7.32918E+10-4.86986E+10-6.28276E+12-2.43379E+10 2.76950E+11 4.40674E+12
 -1        97-1.91720E+11-7.94092E+10-2.76674E+13 8.78894E+09 4.05793E+11 1.88029E+10
 -1        98-2.25781E+11-3.04909E+11-2.72025E+13 2.06816E+10 5.50612E+11 1.00802E+12
 -1        99-2.73623E+11-8.61402E+10-3.46109E+13 7.18307E+10-7.95731E+10 1.12810E+11
 -1       100-9.28487E+10-9.21483E+10-1.18360E+13 2.25229E+09 1.00788E+12 2.44631E+12
 -1       101-1.76464E+11-9.72925E+10-1.79645E+13-3.68327E+09 2.20797E+11 2.87638E+12
 -1       102-5.08522E-01-2.34909E-01-3.51056E+00 2.20345E-01 3.13766E+11 1.20745E+12
 -1       103-2.39455E+10-2.41275E+10-3.07568E+12 8.66737E+09 6.35696E+11 3.87857E+12
 -1       104-2.06352E+10-4.98202E+10-7.18962E+12 3.38220E+10 4.88610E+09 1.56159E+12
 -1       105 1.40327E+11 2.09089E+11-8.48072E+12 1.91061E+09 1.37235E+12 1.30590E+12
 -1       106 2.00859E+11 1.82548E+11-1.08833E+13-1.44908E+10 1.25238E+11 1.52449E+12
 -1       107 2.91385E+00 1.24916E+00-1.60969E-01-2.20994E-01 1.14082E+12 4.39015E+12
 -1       108 5.43335E+10 3.64652E+10-2.20379E+12 7.35250E+09 3.39350E+11 5.28115E+12
 -1       109-4.90082E+10-9.07604E+09-1.64875E+13 3.07892E+09 9.92904E+11 6.28630E+10
 -1       110 1.60134E+11 2.09419E+11-9.69546E+12-2.33044E+10 6.70243E+11 1.25005E+12
 -1       111-5.49747E+10-1.88176E+10-2.07238E+13 1.27921E+10-1.96935E+11 3.00511E+11
 -1       112 8.45459E+10 8.54287E+10-4.39151E+12-2.99264E+09 1.20921E+12 2.94287E+12
 -1       113 1.47625E+11 8.20538E+10-6.71411E+12-1.08819E+10 2.64219E+11 3.46911E+12
 -1       114 5.72906E-01 3.07467E-01-1.79810E+00-1.66483E-01 7.69460E+11 2.96107E+12
 -1       115 2.21994E+10 2.19700E+10-1.14117E+12-1.15164E+10 7.64730E+11 4.65335E+12
 -1       116-2.35849E+09-1.27352E+10-4.28442E+12 1.18484E+10 1.63355E+10 3.82094E+12
 -1       117 4.38781E+11 5.22829E+11 1.30459E+12-1.36023E+10 3.24608E+11 4.29704E+11
 -1       118 6.03852E+11 4.72982E+11 1.62939E+12-3.35151E+10 7.78449E+10 4.96636E+11
 -1       119 1.76697E-02-7.38419E-01-9.65881E-03 8.75565E-01 2.55541E+11 9.83385E+11
 -1       120 1.35862E+11 1.14021E+11 3.39010E+11-5.23449E+10 1.11662E+11 1.24917E+12
 -1       121 1.97704E+11 1.74006E+11-3.12758E+12-1.13321E+10 6.13150E+11-1.38463E+10
 -1       122 5.23083E+11 5.59001E+11 1.45379E+12-6.79292E+10 2.18779E+11 3.66788E+11
 -1       123 2.44349E+11 1.02078E+11-4.05369E+12-5.60568E+10-1.16685E+11 1.13347E+11
 -1       124 3.10436E+11 1.93212E+11 2.95007E+11-1.98015E+10 2.63438E+11 7.79693E+11
 -1       125 4.71578E+11 2.10206E+11 5.79466E+11-5.79003E+10 9.12355E+10 9.45401E+11
 -1       126 1.37666E+00-5.78545E-01-4.29413E-01 3.36541E-01 4.65813E+11 1.79256E+12
 -1       127 5.02078E+10 8.06695E+10 7.66600E+10-7.62010E+10 2.02610E+11 1.01377E+12
 -1       128 4.52170E+10 5.13751E+10-8.12729E+11-4.36086E+10-3.59808E+09 2.35955E+12
 -1       129 1.34391E+13 1.34391E+13 3.13578E+13-1.08529E+05-2.98902E+12 5.22100E+12
 -1       130 1.75590E+13 1.75590E+13 4.09706E+13 3.22877E+04 1.03702E+12 8.39294E+12
 -1       131-3.08009E+11 9.60949E+11 9.97079E+12 1.46207E+11 2.94720E+12 1.09993E+12
 -1       132-4.51208E+11 4.07634E+11 6.59130E+12-4.53220E+11 2.05086E+12 2.65015E+12
 -1       133 3.66310E+12 3.66310E+12 8.54750E+12 8.63856E+06-3.66721E+11 4.47891E+12
 -1       134 8.12901E+12 8.12901E+12 1.89680E+13-1.48594E+06 1.30598E+12 6.97314E+12
 -1       135 1.18933E+12 1.00285E+12 5.28191E+12 1.01563E+10 2.62269E+12 5.27920E+12
 -1       136 9.82077E+11 7.42808E+11 2.20285E+12-5.45083E+11 9.77718E+11 7.09045E+12
 -1       137 1.58204E+13 1.58204E+13 3.69144E+13 3.06727E+06-1.00202E+12 6.92953E+12
 -1       138 2.26507E+12 1.07028E+12 2.29834E+13-2.67277E+11 1.56679E+12 2.72871E+12
 -1       139-5.08377E+11 3.60892E+11 8.30393E+12 5.90921E+10 2.61269E+12 1.60184E+12
 -1       140 2.06257E+12 9.54841E+10 1.64448E+13 7.15885E+11-1.07430E+11 1.98549E+12
 -1       141 3.10395E+11-2.49089E+11-1.63381E+13-5.05871E+10 1.72359E+12 1.66018E+12
 -1       142 2.09498E+11-1.92509E+11-1.19816E+13 7.34746E+10 8.70732E+11 2.06464E+12
 -1       143-5.92740E+10-1.12651E+11-7.68125E+12-3.27388E+09 1.51119E+12 3.74872E+12
 -1       144-6.04190E+09-7.54291E+10-3.23936E+12 1.50784E+11 4.76132E+11 4.53446E+12
 -1       145-1.32012E+12-5.15009E+11-5.33332E+12 5.92215E+10 1.78443E+12-1.63094E+11
 -1       146 2.55631E+11-2.11616E+11-1.44287E+13-9.48424E+10 1.45282E+12 1.57055E+12
 -1       147-1.12721E+12-1.57382E+11-3.65491E+12-1.71264E+11 5.18497E+11 4.95418E+11
 -1       148-6.01956E+11-6.66549E+11-2.61934E+13 1.65650E+09 8.45972E+10 6.90295E+10
 -1       149-5.06007E+11-3.73208E+11-1.91348E+13-2.28560E+10 2.86761E+10 8.38438E+10
 -1       150-1.84273E+11-1.67169E+11-1.25165E+13 7.31120E+09 7.59731E+10 1.64575E+11
 -1       151-1.85555E+10 1.10635E+11-5.40562E+12-1.22835E+10 2.19672E+10 2.02918E+11
 -1       152 9.17369E+09-3.01727E+10-2.14859E+13-4.03632E+09 6.93009E+11 1.09568E+11
 -1       153-6.37523E+11-6.12058E+11-2.30147E+13-3.82367E+10 6.24899E+10 7.29269E+10
 -1       154-1.52111E+11 1.01856E+11-1.57226E+13-1.96539E+10 2.52004E+11 3.37798E+11
 -1       155-2.53434E+11-3.97191E+11-1.81555E+13-9.05783E+09-1.43833E+12-1.35811E+12
 -1       156-2.34334E+11-2.31402E+11-1.32776E+13 4.93937E+09-7.13852E+11-1.72354E+12
 -1       157-1.28618E+11-1.25836E+11-8.70922E+12 3.53362E+09-1.26798E+12-3.08426E+12
 -1       158-4.53187E+10 2.41093E+10-3.79233E+12 2.42108E+10-3.96965E+11-3.75560E+12
 -1       159-2.95482E+11-1.31364E+11-2.24048E+13 1.45922E+10-5.32476E+11-3.99754E+10
 -1       160-2.83544E+11-3.53994E+11-1.59467E+13-3.67520E+10-1.21156E+12-1.32086E+12
 -1       161-3.61291E+11 5.47095E+10-1.63969E+13-5.80870E+10-1.98906E+11-2.33233E+11
 -1       162-2.07684E+10-1.45889E+10 1.76063E+12 8.24662E+08-2.05746E+12-1.93925E+12
 -1       163-1.67968E+10-7.33792E+09 1.30471E+12-1.96114E+09-1.02170E+12-2.46200E+12
 -1       164-2.19204E+09-1.13696E+09 8.92141E+11 2.38375E+08-1.81379E+12-4.41698E+12
 -1       165 1.84999E+09 5.83144E+09 4.37211E+11-2.79740E+09-5.66900E+11-5.37402E+12
 -1       166-7.69581E+10-4.04996E+10-8.28064E+12 3.08185E+09-1.36732E+12-8.43227E+10
 -1       167-2.13856E+10-1.38174E+10 1.52777E+12 4.19943E+08-1.73053E+12-1.88371E+12
 -1       168-1.14485E+11 2.71929E+10-6.05517E+12-1.81659E+10-4.92427E+11-5.75846E+11
 -1       169 2.68521E+11 3.73859E+11 2.17953E+13 6.00491E+09-1.48510E+12-1.40256E+12
 -1       170 2.40974E+11 2.15505E+11 1.59775E+13-2.20715E+08-7.35897E+11-1.77887E+12
 -1       171 1.17351E+11 1.12214E+11 1.05577E+13-3.55201E+09-1.30941E+12-3.18928E+12
 -1       172 3.67156E+10-3.25541E+10 4.70884E+12-1.49257E+10-4.09780E+11-3.87915E+12
 -1       173 8.34859E+10 3.61821E+10 1.18918E+13-3.74171E+09-1.38420E+12-8.75061E+10
 -1       174 2.94161E+11 3.35588E+11 1.90975E+13 3.07168E+10-1.24738E+12-1.36292E+12
 -1       175 1.16204E+11-2.45398E+10 8.73517E+12 1.84423E+10-4.96681E+11-5.81935E+11
 -1       176 3.61680E+11 5.06180E+11 3.06285E+13 8.45527E+09-1.22118E+11-1.15462E+11
 -1       177 3.23943E+11 2.91147E+11 2.24589E+13-1.15232E+09-5.56678E+10-1.44179E+11
 -1       178 1.59537E+11 1.52507E+11 1.48523E+13-4.75099E+09-1.07987E+11-2.63922E+11
 -1       179 5.03691E+10-4.37497E+10 6.63993E+12-2.15542E+10-3.27888E+10-3.17796E+11
 -1       180 2.09259E+11 9.15470E+10 2.64622E+13-9.59899E+09-6.25837E+11-4.09875E+10
 -1       181 3.95896E+11 4.54060E+11 2.68322E+13 4.22605E+10-9.80436E+10-1.11999E+11
 -1       182 2.83393E+11-5.79486E+10 1.94254E+13 4.53289E+10-2.19603E+11-2.59472E+11
 -1       183 1.87404E+11 2.82045E+11 2.41776E+13 6.32440E+09 1.14513E+12 1.06577E+12
 -1       184 1.69374E+11 1.64334E+11 1.77640E+13-1.86759E+09 5.70495E+11 1.35748E+12
 -1       185 9.28487E+10 9.21483E+10 1.18360E+13-2.25229E+09 1.00788E+12 2.44631E+12
 -1       186 3.20800E+10-1.44564E+10 5.40494E+12-1.57437E+10 3.09049E+11 2.98609E+12
 -1       187 1.91720E+11 7.94092E+10 2.76674E+13-8.78894E+09 4.05793E+11 1.88029E+10
 -1       188 2.04256E+11 2.50717E+11 2.11298E+13 2.57298E+10 9.72802E+11 1.03095E+12
 -1       189 2.65242E+11-5.38887E+10 2.03332E+13 4.21991E+10 1.53973E+11 1.73499E+11
 -1       190-1.40327E+11-2.09089E+11 8.48072E+12-1.91061E+09 1.37235E+12 1.30590E+12
 -1       191-1.28206E+11-9.70373E+10 6.39373E+12-8.51303E+09 7.06301E+11 1.67548E+12
 -1       192-8.45459E+10-8.54287E+10 4.39151E+12 2.99264E+09 1.20921E+12 2.94287E+12
 -1       193-5.22855E+10-4.68677E+09 2.28274E+12 5.30886E+08 3.94234E+11 3.59799E+12
 -1       194 4.90082E+10 9.07604E+09 1.64875E+13-3.07892E+09 9.92904E+11 6.28630E+10
 -1       195-1.37593E+11-1.57470E+11 7.35754E+12-2.06146E+10 1.16621E+12 1.28384E+12
 -1       196 5.24489E+10-9.09738E+09 1.21748E+13 7.51509E+09 3.92949E+11 4.53798E+11
 -1       197-4.38781E+11-5.22829E+11-1.30459E+12 1.36023E+10 3.24608E+11 4.29704E+11
 -1       198-4.27692E+11-2.04926E+11-9.57233E+11-1.96894E+10 1.87682E+11 5.25178E+11
 -1       199-3.10436E+11-1.93212E+11-2.95007E+11 1.98015E+10 2.63438E+11 7.79693E+11
 -1       200-2.28317E+11 5.08919E+10 1.46883E+11-2.84256E+10 9.99811E+10 9.60389E+11
 -1       201-1.97704E+11-1.74006E+11 3.12758E+12 1.13321E+10 6.13150E+11-1.38463E+10
 -1       202-4.81684E+11-3.77127E+11-1.34138E+12-4.54966E+10 2.76457E+11 3.69060E+11
 -1       203-2.22845E+11 1.93267E+10 2.38146E+12-3.29322E+10 1.96759E+11 1.94798E+11
 -1       204-1.34391E+13-1.34391E+13-3.13578E+13 1.08529E+05-2.98902E+12 5.22100E+12
 -1       205 4.51208E+11-4.07634E+11-6.59130E+12 4.53220E+11 2.05086E+12 2.65015E+12
 -1       206 4.56285E+12 4.56285E+12 1.06466E+13 1.24251E+05 2.18098E+12 3.99070E+12
 -1       207 2.49711E+11-8.00388E+10 2.59100E+12 5.62640E+11 2.85826E+11 1.13416E+13
 -1       208-1.58204E+13-1.58204E+13-3.69144E+13-3.06727E+06-1.00202E+12 6.92953E+12
 -1       209-2.06257E+12-9.54841E+10-1.64448E+13-7.15885E+11-1.07430E+11 1.98549E+12
 -1       210 5.08377E+11-3.60892E+11-8.30393E+12-5.90921E+10 2.61269E+12 1.60184E+12
 -1       211-3.66310E+12-3.66310E+12-8.54750E+12-8.63856E+06-3.66721E+11 4.47891E+12
 -1       212-9.82077E+11-7.42808E+11-2.20285E+12 5.45083E+11 9.77718E+11 7.09045E+12
 -1       213 2.11239E+12 2.11239E+12 4.92901E+12-5.71827E+06 1.81203E+12 5.02574E+12
 -1       214 2.78121E+11 5.88597E+11 5.97245E+12-1.02855E+12 7.09080E+11 6.02939E+12
 -1       215 2.60599E+11 3.09058E+11 1.37255E+12 3.90839E+10 1.37185E+12 1.00928E+13
 -1       216-2.09498E+11 1.92509E+11 1.19816E+13-7.34746E+10 8.70732E+11 2.06464E+12
 -1       217-6.47279E+10 8.06589E+10-4.24560E+12-1.94672E+11 4.31414E+11 6.63281E+12
 -1       218 1.12721E+12 1.57382E+11 3.65491E+12 1.71264E+11 5.18497E+11 4.95418E+11
 -1       219-2.55631E+11 2.11616E+11 1.44287E+13 9.48424E+10 1.45282E+12 1.57055E+12
 -1       220 6.04190E+09 7.54291E+10 3.23936E+12-1.50784E+11 4.76132E+11 4.53446E+12
 -1       221-1.33830E+11-3.43044E+11-1.38591E+12 2.27899E+11-4.23814E+10 6.86693E+12
 -1       222-2.92732E+10-1.54029E+10-1.99604E+12-1.25987E+10 9.74137E+11 5.81542E+12
 -1       223 5.06007E+11 3.73208E+11 1.91348E+13 2.28560E+10 2.86761E+10 8.38438E+10
 -1       224-1.73208E+11-1.56424E+11-6.80658E+12 6.37463E+09 1.79379E+10 3.25551E+11
 -1       225 1.52111E+11-1.01856E+11 1.57226E+13 1.96539E+10 2.52004E+11 3.37798E+11
 -1       226 6.37523E+11 6.12058E+11 2.30147E+13 3.82367E+10 6.24899E+10 7.29269E+10
 -1       227 1.85555E+10-1.10635E+11 5.40562E+12 1.22835E+10 2.19672E+10 2.02918E+11
 -1       228-7.84063E+09 2.38386E+09-5.58331E+12-1.55328E+10 2.84723E+10 2.66687E+12
 -1       229-4.34404E+10-4.78849E+10-3.25252E+12 2.81353E+10 4.27661E+10 2.92363E+11
 -1       230 2.34334E+11 2.31402E+11 1.32776E+13-4.93937E+09-7.13852E+11-1.72354E+12
 -1       231-1.03214E+11-6.58570E+10-4.71786E+12-3.48568E+10-3.52917E+11-5.53506E+12
 -1       232 3.61291E+11-5.47095E+10 1.63969E+13 5.80870E+10-1.98906E+11-2.33233E+11
 -1       233 2.83544E+11 3.53994E+11 1.59467E+13 3.67520E+10-1.21156E+12-1.32086E+12
 -1       234 4.53187E+10-2.41093E+10 3.79233E+12-2.42108E+10-3.96965E+11-3.75560E+12
 -1       235-3.41361E+10-7.67836E+10-5.82208E+12 5.61545E+10-1.03879E+10-2.04910E+12
 -1       236-3.26995E+10-3.34224E+10-2.26317E+12 1.35982E+10-8.01472E+11-4.87951E+12
 -1       237 1.67968E+10 7.33792E+09-1.30471E+12 1.96114E+09-1.02170E+12-2.46200E+12
 -1       238-3.79106E+09-5.39684E+09 4.57514E+11 3.17350E+09-5.03932E+11-7.91762E+12
 -1       239 1.14485E+11-2.71929E+10 6.05517E+12 1.81659E+10-4.92427E+11-5.75846E+11
 -1       240 2.13856E+10 1.38174E+10-1.52777E+12-4.19943E+08-1.73053E+12-1.88371E+12
 -1       241-1.84999E+09-5.83144E+09-4.37211E+11 2.79740E+09-5.66900E+11-5.37402E+12
 -1       242-1.05242E+10-1.99982E+10-2.15180E+12 1.18597E+10-2.19120E+10-5.26178E+12
 -1       243-2.95449E+08-5.69620E+08 2.31831E+11 9.17324E+08-1.14779E+12-6.97990E+12
 -1       244-2.40974E+11-2.15505E+11-1.59775E+13 2.20715E+08-7.35897E+11-1.77887E+12
 -1       245 9.71504E+10 6.97776E+10 5.66370E+12 2.31084E+10-3.64468E+11-5.71501E+12
 -1       246-1.16204E+11 2.45398E+10-8.73517E+12-1.84423E+10-4.96681E+11-5.81935E+11
 -1       247-2.94161E+11-3.35588E+11-1.90975E+13-3.07168E+10-1.24738E+12-1.36292E+12
 -1       248-3.67156E+10 3.25541E+10-4.70884E+12 1.49257E+10-4.09780E+11-3.87915E+12
 -1       249 9.40222E+09 2.16945E+10 3.09019E+12-1.43990E+10-2.27392E+10-5.32675E+12
 -1       250 2.91597E+10 3.04946E+10 2.74351E+12-1.36690E+10-8.28763E+11-5.03894E+12
 -1       251-3.23943E+11-2.91147E+11-2.24589E+13 1.15232E+09-5.56678E+10-1.44179E+11
 -1       252 1.31535E+11 9.39858E+10 7.95909E+12 3.25380E+10-3.00037E+10-4.69942E+11
 -1       253-2.83393E+11 5.79486E+10-1.94254E+13-4.53289E+10-2.19603E+11-2.59472E+11
 -1       254-3.95896E+11-4.54060E+11-2.68322E+13-4.22605E+10-9.80436E+10-1.11999E+11
 -1       255-5.03691E+10 4.37497E+10-6.63993E+12 2.15542E+10-3.27888E+10-3.17796E+11
 -1       256 2.37893E+10 5.43777E+10 6.87644E+12-3.69393E+10-1.06509E+10-2.40837E+12
 -1       257 3.96302E+10 4.14571E+10 3.85950E+12-1.82830E+10-6.85825E+10-4.15559E+11
 -1       258-1.69374E+11-1.64334E+11-1.77640E+13 1.86759E+09 5.70495E+11 1.35748E+12
 -1       259 7.32918E+10 4.86986E+10 6.28276E+12 2.43379E+10 2.76950E+11 4.40674E+12
 -1       260-2.65242E+11 5.38887E+10-2.03332E+13-4.21991E+10 1.53973E+11 1.73499E+11
 -1       261-2.04256E+11-2.50717E+11-2.11298E+13-2.57298E+10 9.72802E+11 1.03095E+12
 -1       262-3.20800E+10 1.44564E+10-5.40494E+12 1.57437E+10 3.09049E+11 2.98609E+12
 -1       263 2.06352E+10 4.98202E+10 7.18962E+12-3.38220E+10 4.88610E+09 1.56159E+12
 -1       264 2.39455E+10 2.41275E+10 3.07568E+12-8.66737E+09 6.35696E+11 3.87857E+12
 -1       265 1.28206E+11 9.70373E+10-6.39373E+12 8.51303E+09 7.06301E+11 1.67548E+12
 -1       266-5.43335E+10-3.64652E+10 2.20379E+12-7.35250E+09 3.39350E+11 5.28115E+12
 -1       267-5.24489E+10 9.09738E+09-1.21748E+13-7.51509E+09 3.92949E+11 4.53798E+11
 -1       268 1.37593E+11 1.57470E+11-7.35754E+12 2.06146E+10 1.16621E+12 1.28384E+12
 -1       269 5.22855E+10 4.68677E+09-2.28274E+12-5.30886E+08 3.94234E+11 3.59799E+12
 -1       270 2.35849E+09 1.27352E+10 4.28442E+12-1.18484E+10 1.63355E+10 3.82094E+12
 -1       271-2.21994E+10-2.19700E+10 1.14117E+12 1.15164E+10 7.64730E+11 4.65335E+12
 -1       272 4.27692E+11 2.04926E+11 9.57233E+11 1.96894E+10 1.87682E+11 5.25178E+11
 -1       273-1.35862E+11-1.14021E+11-3.39010E+11 5.23449E+10 1.11662E+11 1.24917E+12
 -1       274 2.22845E+11-1.93267E+10-2.38146E+12 3.29322E+10 1.96759E+11 1.94798E+11
 -1       275 4.81684E+11 3.77127E+11 1.34138E+12 4.54966E+10 2.76457E+11 3.69060E+11
 -1       276 2.28317E+11-5.08919E+10-1.46883E+11 2.84256E+10 9.99811E+10 9.60389E+11
 -1       277-4.52170E+10-5.13751E+10 8.12729E+11 4.36086E+10-3.59808E+09 2.35955E+12
 -1       278-5.02078E+10-8.06695E+10-7.66600E+10 7.62010E+10 2.02610E+11 1.01377E+12
 -1       279 2.28759E+13 2.28759E+13 5.33768E+13 1.84737E+05 6.33188E+12 7.64312E+12
 -1       280-2.89362E+11 2.15190E+11 1.12196E+13 7.71465E+11-8.70820E+11 1.89093E+12
 -1       281 1.30112E+13 1.30112E+13 3.03599E+13-1.15993E+07 4.28203E+12 5.68609E+12
 -1       282 1.32546E+12 5.67045E+11 7.15012E+12 5.91094E+11-2.26531E+11 6.66119E+12
 -1       283 2.01533E+13 2.01533E+13 4.70249E+13-8.32624E+06 3.64349E+12 8.13755E+12
 -1       284 2.41452E+12 1.25889E+12 2.79921E+13-1.21857E+12 1.22961E+12 2.33294E+12
 -1       285-1.68000E+11 9.60525E+11 1.07344E+13 2.36153E+11 9.60797E+11 1.28891E+12
 -1       286 1.32545E+11-1.03626E+11-2.03950E+13-1.25068E+11 1.53891E+11 1.87836E+12
 -1       287-1.24862E+11 5.61233E+10-1.17504E+13-1.19762E+11 3.30263E+11 4.38146E+12
 -1       288-1.37818E+12-8.08428E+11-6.22135E+12 2.91523E+11-3.17469E+11 2.78185E+11
 -1       289 2.50614E+11-2.45633E+11-1.83240E+13 2.45387E+10 8.64061E+11 1.53265E+12
 -1       290-7.87303E+11-7.09286E+11-3.25710E+13 3.89052E+10 1.39013E+10 8.00045E+10
 -1       291-3.62376E+11-2.28667E+11-1.90158E+13 3.53740E+10 1.54973E+10 1.97478E+11
 -1       292-1.17372E+11 3.18288E+10-2.67629E+13 3.34545E+10-1.00229E+11 2.46268E+11
 -1       293-6.68194E+11-7.11046E+11-2.93608E+13 5.06209E+10 4.15563E+10 7.12456E+10
 -1       294-3.97246E+11-3.95524E+11-2.26009E+13-8.40773E+09-1.43379E+11-1.57530E+12
 -1       295-2.49182E+11-1.30433E+11-1.32296E+13-7.23345E+09-2.81727E+11-3.62427E+12
 -1       296-3.83125E+11-1.38734E+11-2.79106E+13 9.88749E+10 9.77209E+10-1.56152E+11
 -1       297-3.11173E+11-4.30523E+11-2.03700E+13 2.85809E+10-7.06167E+11-1.29091E+12
 -1       298-2.33193E+10-1.77624E+10 2.22087E+12 3.33823E+09-2.02525E+11-2.24913E+12
 -1       299-5.58326E+09-5.24330E+09 1.35204E+12 2.96850E+09-4.00884E+11-5.18784E+12
 -1       300-1.15911E+11-3.26774E+10-1.03070E+13 3.09218E+10 2.42797E+11-3.84791E+11
 -1       301-2.12327E+10-1.47876E+10 1.99272E+12 1.07838E+09-1.01406E+12-1.84056E+12
 -1       302 3.95987E+11 3.81024E+11 2.71967E+13 3.75699E+08-1.48978E+11-1.62635E+12
 -1       303 2.29075E+11 1.26683E+11 1.60349E+13-3.27171E+07-2.90500E+11-3.74575E+12
 -1       304 1.19357E+11 3.66726E+10 1.48689E+13-3.13922E+10 2.44273E+11-3.89392E+11
 -1       305 3.18621E+11 4.04656E+11 2.44879E+13-2.68468E+10-7.34016E+11-1.33193E+12
 -1       306 5.33133E+11 5.13866E+11 3.82292E+13 1.96146E+09-1.66281E+10-1.34034E+11
 -1       307 3.10736E+11 1.70568E+11 2.25566E+13 1.12194E+09-2.48850E+10-3.09178E+11
 -1       308 2.92140E+11 9.16088E+10 3.30656E+13-7.71583E+10 1.06791E+11-1.74656E+11
 -1       309 4.28851E+11 5.47896E+11 3.44191E+13-3.63679E+10-6.48811E+10-1.09945E+11
 -1       310 2.85497E+11 2.82536E+11 3.02376E+13 3.17899E+09 1.03472E+11 1.23611E+12
 -1       311 1.76464E+11 9.72925E+10 1.79645E+13 3.68327E+09 2.20797E+11 2.87638E+12
 -1       312 2.73623E+11 8.61402E+10 3.46109E+13-7.18307E+10-7.95731E+10 1.12810E+11
 -1       313 2.25781E+11 3.04909E+11 2.72025E+13-2.06816E+10 5.50612E+11 1.00802E+12
 -1       314-2.00859E+11-1.82548E+11 1.08833E+13 1.44908E+10 1.25238E+11 1.52449E+12
 -1       315-1.47625E+11-8.20538E+10 6.71411E+12 1.08819E+10 2.64219E+11 3.46911E+12
 -1       316 5.49747E+10 1.88176E+10 2.07238E+13-1.27921E+10-1.96935E+11 3.00511E+11
 -1       317-1.60134E+11-2.09419E+11 9.69546E+12 2.33044E+10 6.70243E+11 1.25005E+12
 -1       318-6.03852E+11-4.72982E+11-1.62939E+12 3.35151E+10 7.78449E+10 4.96636E+11
 -1       319-4.71578E+11-2.10206E+11-5.79466E+11 5.79003E+10 9.12355E+10 9.45401E+11
 -1       320-2.44349E+11-1.02078E+11 4.05369E+12 5.60568E+10-1.16685E+11 1.13347E+11
 -1       321-5.23083E+11-5.59001E+11-1.45379E+12 6.79292E+10 2.18779E+11 3.66788E+11
 -3
    1PSTEP                        31           1           1          
    1PGM                1.000000E+00                                  
    1PGK                6.941641E+09                                  
    1PHID                         -1                                  
    1PSUBC                         0                                  
    1PMODE                         8                                  
  100CL  108 13260.23419         321                     2    8MODAL      1
 -4  TOSTRAIN    6    1
 -5  EXX         1    4    1    1
 -5  EYY         1    4    2    2
 -5  EZZ         1    4    3    3
 -5  EXY         1    4    1    2
 -5  EYZ         1    4    2    3
 -5  EZX         1    4    3    1
 -1         1-5.45405E-04-5.07773E-04-1.88815E+02-1.14361E-06 3.91973E+01 4.73145E+01
 -1         2-4.40939E-04-3.93701E-04-1.44930E+02-1.99876E-07 6.41963E+00 5.19563E+01
 -1         3 1.70835E+01 9.22803E+00-4.65472E+01-9.05091E-01 1.82446E+01 6.80908E+00
 -1         4 1.77134E+01 1.45899E+01-5.35327E+01-4.77574E+00-5.39079E+00 1.17058E+01
 -1         5-1.02307E-04-1.14582E-04-3.76612E+01-7.69172E-07 1.35013E+01 2.47043E+01
 -1         6-2.54457E-14 2.74780E-14-2.71954E-11 2.20132E-14 9.37920E+00 3.60934E+01
 -1         7 1.03271E-11 1.11867E-11-4.00905E-11 5.63771E-13 1.49815E+01 5.76524E+01
 -1         8 2.39798E+00 4.43929E+00-1.20957E+01-3.48301E+00 1.76940E+00 7.02096E+01
 -1         9 6.15758E-04 6.71125E-04-1.66347E+02 5.15434E-05 2.25549E+01 5.03753E+01
 -1        10 2.35764E+01 3.09727E+01-1.04680E+02 1.65457E+00 9.69917E+00 1.68920E+01
 -1        11 1.75070E+01 1.05209E+01-4.99839E+01-1.46190E+00 5.94779E+00 7.97896E+00
 -1        12 3.02894E+01 3.74433E+01-1.28048E+02 7.54353E+00 7.61188E+00 1.44420E+01
 -1        13 6.48771E-04 6.31970E-04-1.07396E+02 7.18049E-05 2.65078E+01 3.51996E+01
 -1        14 5.07918E-04 5.07509E-04-6.70983E+01 9.19869E-06 8.08465E+00 4.31670E+01
 -1        15 3.31473E+00 4.46915E+00-2.20202E+01-6.28723E-02 1.62357E+01 3.26808E+01
 -1        16 4.71281E+00 9.40775E+00-3.13446E+01-3.65915E+00-1.40233E+00 4.12360E+01
 -1        17 1.31881E-04 1.31987E-04-1.74361E+01 3.53988E-05 1.12173E+01 3.11117E+01
 -1        18 1.09117E-11 1.10951E-11-3.56590E-11 1.81632E-13 9.75575E+00 3.75425E+01
 -1        19 1.16135E+00 8.61363E-01-5.72215E+00-2.41948E-01 8.49239E+00 6.24790E+01
 -1        20 8.04854E+00 6.12654E+00-2.72021E+01 6.36719E+00 4.38954E+00 3.73248E+01
 -1        21-2.51741E+01-2.17106E+01 7.78881E+01 3.13158E-01 1.06699E+01 1.02773E+01
 -1        22-2.99149E+01-2.84529E+01 9.71603E+01 7.74228E-01 9.52657E-01 1.16279E+01
 -1        23 8.18462E-12 1.09471E-11-3.49072E-11 8.70082E-13 8.86903E+00 3.41302E+01
 -1        24-5.64169E+00-6.54170E+00 2.02399E+01 1.20511E+00 2.67066E+00 4.10603E+01
 -1        25-2.06850E+00-7.05249E+00 2.27752E+01-3.66609E-01 1.10465E+01-1.00963E+00
 -1        26-2.77214E+01-2.46494E+01 8.72641E+01-1.51906E-01 5.34895E+00 9.48783E+00
 -1        27-3.47977E+00-7.00681E+00 2.65017E+01-1.80467E+00-1.96529E+00 1.72210E+00
 -1        28-1.08519E+01-1.05215E+01 3.63318E+01 2.02669E-02 9.35497E+00 2.32063E+01
 -1        29-1.61116E+01-1.72320E+01 5.58563E+01 7.41383E-01 2.04448E+00 2.71233E+01
 -1        30 1.05008E-11 1.09987E-11-3.57444E-11 6.06015E-13 8.84776E+00 3.40484E+01
 -1        31-2.73409E+00-2.81996E+00 9.44113E+00 7.79920E-02 6.03037E+00 3.60002E+01
 -1        32-1.83265E+00-5.37517E-01 5.91833E+00-1.41080E+00-2.62361E-01 4.25095E+01
 -1        33-3.55049E+01-3.51050E+01 1.22918E+02-1.02545E-02 5.23697E-01 4.27326E-01
 -1        34-4.37942E+01-4.42772E+01 1.52962E+02-2.40842E-01 8.60558E-02 4.95266E-01
 -1        35 9.38771E-12 1.10228E-11-3.45487E-11 1.30236E-13 4.35182E-01 1.67469E+00
 -1        36-9.12235E+00-9.22626E+00 3.19414E+01-3.94620E-02 1.11044E-01 2.01531E+00
 -1        37-3.07810E+01-3.05374E+01 1.02284E+02 2.49868E-02 4.29006E+00 6.78281E-01
 -1        38-3.97779E+01-3.95126E+01 1.37843E+02-3.13368E-01 2.57253E-01 4.41044E-01
 -1        39-3.76283E+01-3.85519E+01 1.27320E+02-2.07100E-01-6.20465E-01 1.52451E+00
 -1        40-1.72420E+01-1.73479E+01 5.91003E+01-4.52598E-02 4.70310E-01 1.01880E+00
 -1        41-2.57666E+01-2.65943E+01 8.97073E+01-2.18982E-01 9.59357E-02 1.22248E+00
 -1        42 9.57595E-12 1.10120E-11-3.47423E-11-3.13638E-14 3.34652E+00 1.28782E+01
 -1        43-4.50800E+00-4.48049E+00 1.53577E+01-1.74171E-01 2.64743E-01 1.80987E+00
 -1        44-7.93542E+00-7.99871E+00 2.65794E+01 9.61552E-02 1.76257E-01 1.65092E+01
 -1        45-2.52970E+01-2.44071E+01 8.55252E+01 5.60723E-02-8.90397E+00-8.40736E+00
 -1        46-3.09604E+01-3.09710E+01 1.06491E+02 5.20479E-02-8.87584E-01-9.75183E+00
 -1        47 1.12392E-11 7.50092E-12-3.06469E-11-8.82697E-13-7.41973E+00-2.85529E+01
 -1        48-6.34239E+00-6.57364E+00 2.22245E+01 2.15780E-01-2.18472E+00-3.42647E+01
 -1        49-3.07875E+01-3.18034E+01 1.06080E+02-9.03329E-02-3.29628E+00-2.47467E-01
 -1        50-2.82333E+01-2.74945E+01 9.59405E+01-1.76930E-01-4.37151E+00-7.99137E+00
 -1        51-3.82461E+01-3.97590E+01 1.32162E+02-6.12083E-01 6.04939E-01-9.66655E-01
 -1        52-1.20090E+01-1.20263E+01 4.11090E+01-2.18748E-02-7.84942E+00-1.90930E+01
 -1        53-1.78991E+01-1.86342E+01 6.24556E+01 4.47785E-02-1.74403E+00-2.24360E+01
 -1        54 1.13825E-11 9.17982E-12-3.24590E-11-1.03828E-12-2.55996E+00-9.85134E+00
 -1        55-3.12513E+00-3.12066E+00 1.06825E+01-8.41796E-02-4.96149E+00-3.02065E+01
 -1        56-8.26439E+00-8.00039E+00 2.75657E+01-3.47623E-01-6.43063E-02-1.26849E+01
 -1        57 2.59324E+00 2.55498E+00-8.43444E+00-5.10505E-03-1.27367E+01-1.20049E+01
 -1        58 3.25834E+00 3.22394E+00-1.06342E+01-2.06652E-02-1.25373E+00-1.39232E+01
 -1        59 8.90539E-12 1.43853E-11-2.84400E-11 2.56349E-12-1.06193E+01-4.08657E+01
 -1        60 6.63934E-01 6.73875E-01-2.19176E+00-1.96455E-02-3.11958E+00-4.90138E+01
 -1        61-1.15209E+01-1.17466E+01 3.92638E+01-1.90781E-02-8.46436E+00-5.21998E-01
 -1        62 2.92673E+00 2.88683E+00-9.54060E+00-6.67566E-03-6.27752E+00-1.13940E+01
 -1        63-1.42190E+01-1.47343E+01 4.88688E+01-1.91421E-01 1.50303E+00-2.38204E+00
 -1        64 1.28330E+00 1.27677E+00-4.25305E+00-1.47565E-03-1.12282E+01-2.73432E+01
 -1        65 1.95058E+00 1.94848E+00-6.45375E+00-1.83764E-02-2.48167E+00-3.21152E+01
 -1        66 9.55384E-12 1.08911E-11-2.94478E-11 2.32437E-13-6.59741E+00-2.53884E+01
 -1        67 3.31780E-01 3.33477E-01-1.10519E+00-5.67867E-03-7.10537E+00-4.32089E+01
 -1        68-3.05245E+00-2.99380E+00 1.02030E+01-7.34173E-02-1.35646E-01-3.25729E+01
 -1        69 3.03916E+01 2.97395E+01-1.02869E+02-3.71733E-02-9.19345E+00-8.68253E+00
 -1        70 3.75111E+01 3.76037E+01-1.28398E+02-2.32575E-03-9.22244E-01-1.00679E+01
 -1        71 6.07181E-12 3.97822E-12-2.31198E-11 9.25676E-13-7.66663E+00-2.95031E+01
 -1        72 7.72806E+00 7.89751E+00-2.67315E+01-1.43052E-01-2.25623E+00-3.53787E+01
 -1        73 1.66424E+01 1.69353E+01-5.64567E+01 2.31629E-02-8.56888E+00-5.41705E-01
 -1        74 3.40436E+01 3.35110E+01-1.15576E+02 1.66194E-01-4.54391E+00-8.24526E+00
 -1        75 2.07253E+01 2.12371E+01-7.05813E+01 1.94333E-01 1.51217E+00-2.41052E+00
 -1        76 1.46839E+01 1.47157E+01-4.99468E+01 2.19887E-02-8.10589E+00-1.97432E+01
 -1        77 2.19971E+01 2.26310E+01-7.58483E+01 2.02534E-04-1.79833E+00-2.31880E+01
 -1        78 6.82368E-12 8.80067E-12-2.54228E-11 1.87369E-12-6.68343E+00-2.57195E+01
 -1        79 3.82401E+00 3.81574E+00-1.29791E+01 8.46177E-02-5.13044E+00-3.11934E+01
 -1        80 4.40077E+00 4.32468E+00-1.46708E+01 8.91367E-02-1.40767E-01-3.29751E+01
 -1        81 4.27559E+01 4.18614E+01-1.44610E+02-5.23422E-02-7.55971E-01-7.14763E-01
 -1        82 5.28085E+01 5.29277E+01-1.80548E+02-1.21423E-02-1.02936E-01-8.29733E-01
 -1        83 4.67248E-12 4.67140E-12-1.88430E-11 2.18164E-12-6.34975E-01-2.44354E+00
 -1        84 1.08780E+01 1.11105E+01-3.75783E+01-2.01425E-01-1.85737E-01-2.90916E+00
 -1        85 3.69375E+01 3.76662E+01-1.25581E+02 5.94223E-02-3.87423E+00-2.53732E-01
 -1        86 4.79108E+01 4.71738E+01-1.62505E+02 2.25135E-01-4.01645E-01-6.80610E-01
 -1        87 4.59763E+01 4.72177E+01-1.56907E+02 4.77647E-01 6.61085E-01-1.08120E+00
 -1        88 2.06758E+01 2.07193E+01-7.02796E+01 2.94109E-02-6.68489E-01-1.63380E+00
 -1        89 3.09877E+01 3.18554E+01-1.06725E+02-6.94534E-03-1.54050E-01-1.91396E+00
 -1        90 4.55652E-12 4.49749E-12-2.09829E-11 1.35383E-12-3.02782E+00-1.16518E+01
 -1        91 5.38409E+00 5.37278E+00-1.82628E+01 1.13180E-01-4.24558E-01-2.57251E+00
 -1        92 9.78789E+00 9.59853E+00-3.26333E+01 2.28672E-01-6.59344E-02-1.49090E+01
 -1        93 3.40500E+01 3.34641E+01-1.14461E+02-3.91511E-02 7.08889E+00 6.59763E+00
 -1        94 4.22407E+01 4.22590E+01-1.43177E+02-1.96795E-02 6.40540E-01 7.65214E+00
 -1        95 2.72707E-12 3.19370E-12-1.27295E-11-1.14575E-13 5.89330E+00 2.26789E+01
 -1        96 8.69594E+00 8.84818E+00-2.97436E+01-1.50663E-01 1.71445E+00 2.72798E+01
 -1        97 3.87254E+01 3.94207E+01-1.31362E+02 5.44077E-02 2.51205E+00 1.16399E-01
 -1        98 3.82212E+01 3.77314E+01-1.28778E+02 1.28029E-01 3.40855E+00 6.24013E+00
 -1        99 4.82642E+01 4.94248E+01-1.64300E+02 4.44666E-01-4.92595E-01 6.98350E-01
 -1       100 1.65980E+01 1.66024E+01-5.60975E+01 1.39427E-02 6.23926E+00 1.51438E+01
 -1       101 2.49623E+01 2.54524E+01-8.51542E+01-2.28012E-02 1.36684E+00 1.78062E+01
 -1       102 2.92885E-12 4.62180E-12-1.56502E-11 1.36405E-12 1.94236E+00 7.47468E+00
 -1       103 4.31427E+00 4.31314E+00-1.45774E+01 5.36551E-02 3.93526E+00 2.40102E+01
 -1       104 1.02438E+01 1.00631E+01-3.41357E+01 2.09374E-01 3.02473E-02 9.66699E+00
 -1       105 1.24848E+01 1.29105E+01-4.08835E+01 1.18276E-02 8.49551E+00 8.08416E+00
 -1       106 1.62433E+01 1.61299E+01-5.23731E+01-8.97047E-02 7.75283E-01 9.43729E+00
 -1       107 1.23210E-11 2.01579E-12-6.71372E-12-1.36807E-12 7.06221E+00 2.71771E+01
 -1       108 3.35491E+00 3.24429E+00-1.06239E+01 4.55155E-02 2.10074E+00 3.26928E+01
 -1       109 2.33332E+01 2.35804E+01-7.84289E+01 1.90600E-02 6.14655E+00 3.89152E-01
 -1       110 1.43140E+01 1.46191E+01-4.66968E+01-1.44265E-01 4.14913E+00 7.73842E+00
 -1       111 2.93706E+01 2.95944E+01-9.85796E+01 7.91891E-02-1.21912E+00 1.86031E+00
 -1       112 6.55415E+00 6.55962E+00-2.11548E+01-1.85258E-02 7.48560E+00 1.82178E+01
 -1       113 1.01773E+01 9.77143E+00-3.23001E+01-6.73639E-02 1.63564E+00 2.14755E+01
 -1       114 4.85688E-12 3.21326E-12-9.82028E-12-1.03060E-12 4.76332E+00 1.83304E+01
 -1       115 1.70457E+00 1.70315E+00-5.49726E+00-7.12920E-02 4.73404E+00 2.88064E+01
 -1       116 6.12756E+00 6.06333E+00-2.03804E+01 7.33474E-02 1.01124E-01 2.36534E+01
 -1       117-5.21172E-01-8.75780E-04 4.83863E+00-8.42047E-02 2.00948E+00 2.66007E+00
 -1       118-1.27900E-01-9.38052E-01 6.22066E+00-2.07474E-01 4.81897E-01 3.07441E+00
 -1       119 1.15308E-12-3.52746E-12 9.83805E-13 5.42025E-12 1.58192E+00 6.08762E+00
 -1       120-2.27579E-04-1.35431E-01 1.25736E+00-3.24040E-01 6.91243E-01 7.73297E+00
 -1       121 5.16084E+00 5.01414E+00-1.54243E+01-7.01509E-02 3.79569E+00-8.57151E-02
 -1       122-3.84542E-01-1.62195E-01 5.37697E+00-4.20514E-01 1.35435E+00 2.27059E+00
 -1       123 6.80873E+00 5.92800E+00-1.97982E+01-3.47018E-01-7.22337E-01 7.01670E-01
 -1       124 7.80812E-01 5.51379E-02 6.85296E-01-1.22581E-01 1.63080E+00 4.82667E+00
 -1       125 1.11751E+00-5.00512E-01 1.78538E+00-3.58431E-01 5.64791E-01 5.85248E+00
 -1       126 7.99560E-12-4.10808E-12-3.18430E-12 2.08331E-12 2.88360E+00 1.10968E+01
 -1       127 1.43281E-02 2.02901E-01 1.78080E-01-4.71720E-01 1.25425E+00 6.27573E+00
 -1       128 1.30297E+00 1.34109E+00-4.00813E+00-2.69958E-01-2.22738E-02 1.46067E+01
 -1       129 3.41389E-04 2.77332E-04 1.10925E+02-6.71849E-07-1.85035E+01 3.23205E+01
 -1       130 4.40939E-04 3.93701E-04 1.44930E+02 1.99876E-07 6.41963E+00 5.19563E+01
 -1       131-1.70835E+01-9.22803E+00 4.65472E+01 9.05091E-01 1.82446E+01 6.80908E+00
 -1       132-1.21471E+01-6.83044E+00 3.14494E+01-2.80565E+00 1.26958E+01 1.64057E+01
 -1       133-3.68680E-04-3.80305E-04 3.02364E+01 5.34768E-05-2.27018E+00 2.77266E+01
 -1       134-5.07918E-04-5.07509E-04 6.70983E+01-9.19869E-06 8.08465E+00 4.31670E+01
 -1       135-3.31473E+00-4.46915E+00 2.20202E+01 6.28723E-02 1.62357E+01 3.26808E+01
 -1       136 4.68473E-01-1.01272E+00 8.02564E+00-3.37433E+00 6.05254E+00 4.38933E+01
 -1       137-3.52709E-04-4.06732E-04 1.30582E+02 1.89878E-05-6.20299E+00 4.28971E+01
 -1       138-2.35764E+01-3.09727E+01 1.04680E+02-1.65457E+00 9.69917E+00 1.68920E+01
 -1       139-1.47992E+01-9.41796E+00 3.97532E+01 3.65808E-01 1.61738E+01 9.91617E+00
 -1       140-1.38072E+01-2.59844E+01 7.52255E+01 4.43167E+00-6.65043E-01 1.22911E+01
 -1       141 2.51741E+01 2.17106E+01-7.78881E+01-3.13158E-01 1.06699E+01 1.02773E+01
 -1       142 1.83892E+01 1.59006E+01-5.70797E+01 4.54843E-01 5.39024E+00 1.27811E+01
 -1       143 1.08519E+01 1.05215E+01-3.63318E+01-2.02669E-02 9.35497E+00 2.32063E+01
 -1       144 4.70665E+00 4.27711E+00-1.53092E+01 9.33425E-01 2.94748E+00 2.80705E+01
 -1       145 2.06850E+00 7.05249E+00-2.27752E+01 3.66609E-01 1.10465E+01-1.00963E+00
 -1       146 2.21321E+01 1.92396E+01-6.87711E+01-5.87119E-01 8.99364E+00 9.72248E+00
 -1       147 7.84915E-02 6.08216E+00-1.55692E+01-1.06020E+00 3.20974E+00 3.06687E+00
 -1       148 3.55049E+01 3.51050E+01-1.22918E+02 1.02545E-02 5.23697E-01 4.27326E-01
 -1       149 2.54590E+01 2.62811E+01-8.98621E+01-1.41489E-01 1.77519E-01 5.19033E-01
 -1       150 1.72420E+01 1.73479E+01-5.91003E+01 4.52598E-02 4.70310E-01 1.01880E+00
 -1       151 7.47590E+00 8.27565E+00-2.58726E+01-7.60410E-02 1.35987E-01 1.25616E+00
 -1       152 3.07810E+01 3.05374E+01-1.02284E+02-2.49868E-02 4.29006E+00 6.78281E-01
 -1       153 3.07166E+01 3.08743E+01-1.07809E+02-2.36703E-01 3.86842E-01 4.51452E-01
 -1       154 2.15911E+01 2.31632E+01-7.47979E+01-1.21667E-01 1.56002E+00 2.09113E+00
 -1       155 2.52970E+01 2.44071E+01-8.55252E+01-5.60723E-02-8.90397E+00-8.40736E+00
 -1       156 1.81826E+01 1.82008E+01-6.25612E+01 3.05771E-02-4.41908E+00-1.06695E+01
 -1       157 1.20090E+01 1.20263E+01-4.11090E+01 2.18748E-02-7.84942E+00-1.90930E+01
 -1       158 5.16737E+00 5.59716E+00-1.80284E+01 1.49876E-01-2.45740E+00-2.32490E+01
 -1       159 3.07875E+01 3.18034E+01-1.06080E+02 9.03329E-02-3.29628E+00-2.47467E-01
 -1       160 2.19365E+01 2.15004E+01-7.50261E+01-2.27512E-01-7.50012E+00-8.17675E+00
 -1       161 2.16256E+01 2.42008E+01-7.76426E+01-3.59586E-01-1.23132E+00-1.44382E+00
 -1       162-2.59324E+00-2.55498E+00 8.43444E+00 5.10505E-03-1.27367E+01-1.20049E+01
 -1       163-1.93338E+00-1.87482E+00 6.24740E+00-1.21404E-02-6.32481E+00-1.52409E+01
 -1       164-1.28330E+00-1.27677E+00 4.25305E+00 1.47565E-03-1.12282E+01-2.73432E+01
 -1       165-6.24108E-01-5.99461E-01 2.07098E+00-1.73172E-02-3.50938E+00-3.32677E+01
 -1       166 1.15209E+01 1.17466E+01-3.92638E+01 1.90781E-02-8.46436E+00-5.21998E-01
 -1       167-2.26462E+00-2.21777E+00 7.32537E+00 2.59964E-03-1.07128E+01-1.16610E+01
 -1       168 8.06622E+00 8.94328E+00-2.87094E+01-1.12456E-01-3.04836E+00-3.56476E+00
 -1       169-3.03916E+01-2.97395E+01 1.02869E+02 3.71733E-02-9.19345E+00-8.68253E+00
 -1       170-2.19854E+01-2.21430E+01 7.54312E+01-1.36633E-03-4.55555E+00-1.10120E+01
 -1       171-1.46839E+01-1.47157E+01 4.99468E+01-2.19887E-02-8.10589E+00-1.97432E+01
 -1       172-6.50556E+00-6.93438E+00 2.24171E+01-9.23970E-02-2.53674E+00-2.40138E+01
 -1       173-1.66424E+01-1.69353E+01 5.64567E+01-2.31629E-02-8.56888E+00-5.41705E-01
 -1       174-2.63607E+01-2.61043E+01 9.00407E+01 1.90152E-01-7.72189E+00-8.43714E+00
 -1       175-1.18904E+01-1.27617E+01 4.14651E+01 1.14167E-01-3.07469E+00-3.60246E+00
 -1       176-4.27559E+01-4.18614E+01 1.44610E+02 5.23422E-02-7.55971E-01-7.14763E-01
 -1       177-3.09574E+01-3.11604E+01 1.06068E+02-7.13338E-03-3.44610E-01-8.92534E-01
 -1       178-2.06758E+01-2.07193E+01 7.02796E+01-2.94109E-02-6.68489E-01-1.63380E+00
 -1       179-9.18325E+00-9.76589E+00 3.16092E+01-1.33431E-01-2.02978E-01-1.96731E+00
 -1       180-3.69375E+01-3.76662E+01 1.25581E+02-5.94223E-02-3.87423E+00-2.53732E-01
 -1       181-3.70951E+01-3.67350E+01 1.26558E+02 2.61613E-01-6.06937E-01-6.93324E-01
 -1       182-2.63183E+01-2.84313E+01 9.21797E+01 2.80608E-01-1.35944E+00-1.60625E+00
 -1       183-3.40500E+01-3.34641E+01 1.14461E+02 3.91511E-02 7.08889E+00 6.59763E+00
 -1       184-2.48053E+01-2.48365E+01 8.41136E+01-1.15613E-02 3.53164E+00 8.40342E+00
 -1       185-1.65980E+01-1.66024E+01 5.60975E+01-1.39427E-02 6.23926E+00 1.51438E+01
 -1       186-7.54794E+00-7.83602E+00 2.57127E+01-9.74608E-02 1.91316E+00 1.84853E+01
 -1       187-3.87254E+01-3.94207E+01 1.31362E+02-5.44077E-02 2.51205E+00 1.16399E-01
 -1       188-2.95709E+01-2.92833E+01 9.99680E+01 1.59280E-01 6.02211E+00 6.38209E+00
 -1       189-2.77073E+01-2.96829E+01 9.65227E+01 2.61232E-01 9.53167E-01 1.07404E+00
 -1       190-1.24848E+01-1.29105E+01 4.08835E+01-1.18276E-02 8.49551E+00 8.08416E+00
 -1       191-9.60579E+00-9.41284E+00 3.07681E+01-5.26997E-02 4.37234E+00 1.03720E+01
 -1       192-6.55415E+00-6.55962E+00 2.11548E+01 1.85258E-02 7.48560E+00 1.82178E+01
 -1       193-3.50335E+00-3.20869E+00 1.09516E+01 3.28644E-03 2.44050E+00 2.22733E+01
 -1       194-2.33332E+01-2.35804E+01 7.84289E+01-1.90600E-02 6.14655E+00 3.89152E-01
 -1       195-1.09410E+01-1.10641E+01 3.54574E+01-1.27614E-01 7.21937E+00 7.94757E+00
 -1       196-1.71299E+01-1.75109E+01 5.79135E+01 4.65220E-02 2.43254E+00 2.80922E+00
 -1       197 5.21172E-01 8.75780E-04-4.83863E+00 8.42047E-02 2.00948E+00 2.66007E+00
 -1       198-3.76403E-01 1.00263E+00-3.65451E+00-1.21887E-01 1.16184E+00 3.25110E+00
 -1       199-7.80812E-01-5.51379E-02-6.85296E-01 1.22581E-01 1.63080E+00 4.82667E+00
 -1       200-1.36976E+00 3.58677E-01 9.52909E-01-1.75968E-01 6.18930E-01 5.94526E+00
 -1       201-5.16084E+00-5.01414E+00 1.54243E+01 7.01509E-02 3.79569E+00-8.57151E-02
 -1       202 1.61275E-01 8.08534E-01-5.16065E+00-2.81646E-01 1.71140E+00 2.28466E+00
 -1       203-4.49086E+00-2.99170E+00 1.16310E+01-2.03866E-01 1.21803E+00 1.20589E+00
 -1       204-3.41389E-04-2.77332E-04-1.10925E+02 6.71849E-07-1.85035E+01 3.23205E+01
 -1       205 1.21471E+01 6.83044E+00-3.14494E+01 2.80565E+00 1.26958E+01 1.64057E+01
 -1       206 1.02307E-04 1.14582E-04 3.76612E+01 7.69172E-07 1.35013E+01 2.47043E+01
 -1       207-2.39798E+00-4.43929E+00 1.20957E+01 3.48301E+00 1.76940E+00 7.02096E+01
 -1       208 3.52709E-04 4.06732E-04-1.30582E+02-1.89878E-05-6.20299E+00 4.28971E+01
 -1       209 1.38072E+01 2.59844E+01-7.52255E+01-4.43167E+00-6.65043E-01 1.22911E+01
 -1       210 1.47992E+01 9.41796E+00-3.97532E+01-3.65808E-01 1.61738E+01 9.91617E+00
 -1       211 3.68680E-04 3.80305E-04-3.02364E+01-5.34768E-05-2.27018E+00 2.77266E+01
 -1       212-4.68473E-01 1.01272E+00-8.02564E+00 3.37433E+00 6.05254E+00 4.38933E+01
 -1       213-1.31881E-04-1.31987E-04 1.74361E+01-3.53988E-05 1.12173E+01 3.11117E+01
 -1       214-8.04854E+00-6.12654E+00 2.72021E+01-6.36719E+00 4.38954E+00 3.73248E+01
 -1       215-1.16135E+00-8.61363E-01 5.72215E+00 2.41948E-01 8.49239E+00 6.24790E+01
 -1       216-1.83892E+01-1.59006E+01 5.70797E+01-4.54843E-01 5.39024E+00 1.27811E+01
 -1       217 5.64169E+00 6.54170E+00-2.02399E+01-1.20511E+00 2.67066E+00 4.10603E+01
 -1       218-7.84915E-02-6.08216E+00 1.55692E+01 1.06020E+00 3.20974E+00 3.06687E+00
 -1       219-2.21321E+01-1.92396E+01 6.87711E+01 5.87119E-01 8.99364E+00 9.72248E+00
 -1       220-4.70665E+00-4.27711E+00 1.53092E+01-9.33425E-01 2.94748E+00 2.80705E+01
 -1       221 1.83265E+00 5.37517E-01-5.91833E+00 1.41080E+00-2.62361E-01 4.25095E+01
 -1       222 2.73409E+00 2.81996E+00-9.44113E+00-7.79920E-02 6.03037E+00 3.60002E+01
 -1       223-2.54590E+01-2.62811E+01 8.98621E+01 1.41489E-01 1.77519E-01 5.19033E-01
 -1       224 9.12235E+00 9.22626E+00-3.19414E+01 3.94620E-02 1.11044E-01 2.01531E+00
 -1       225-2.15911E+01-2.31632E+01 7.47979E+01 1.21667E-01 1.56002E+00 2.09113E+00
 -1       226-3.07166E+01-3.08743E+01 1.07809E+02 2.36703E-01 3.86842E-01 4.51452E-01
 -1       227-7.47590E+00-8.27565E+00 2.58726E+01 7.60410E-02 1.35987E-01 1.25616E+00
 -1       228 7.93542E+00 7.99871E+00-2.65794E+01-9.61552E-02 1.76257E-01 1.65092E+01
 -1       229 4.50800E+00 4.48049E+00-1.53577E+01 1.74171E-01 2.64743E-01 1.80987E+00
 -1       230-1.81826E+01-1.82008E+01 6.25612E+01-3.05771E-02-4.41908E+00-1.06695E+01
 -1       231 6.34239E+00 6.57364E+00-2.22245E+01-2.15780E-01-2.18472E+00-3.42647E+01
 -1       232-2.16256E+01-2.42008E+01 7.76426E+01 3.59586E-01-1.23132E+00-1.44382E+00
 -1       233-2.19365E+01-2.15004E+01 7.50261E+01 2.27512E-01-7.50012E+00-8.17675E+00
 -1       234-5.16737E+00-5.59716E+00 1.80284E+01-1.49876E-01-2.45740E+00-2.32490E+01
 -1       235 8.26439E+00 8.00039E+00-2.75657E+01 3.47623E-01-6.43063E-02-1.26849E+01
 -1       236 3.12513E+00 3.12066E+00-1.06825E+01 8.41796E-02-4.96149E+00-3.02065E+01
 -1       237 1.93338E+00 1.87482E+00-6.24740E+00 1.21404E-02-6.32481E+00-1.52409E+01
 -1       238-6.63934E-01-6.73875E-01 2.19176E+00 1.96455E-02-3.11958E+00-4.90138E+01
 -1       239-8.06622E+00-8.94328E+00 2.87094E+01 1.12456E-01-3.04836E+00-3.56476E+00
 -1       240 2.26462E+00 2.21777E+00-7.32537E+00-2.59964E-03-1.07128E+01-1.16610E+01
 -1       241 6.24108E-01 5.99461E-01-2.07098E+00 1.73172E-02-3.50938E+00-3.32677E+01
 -1       242 3.05245E+00 2.99380E+00-1.02030E+01 7.34173E-02-1.35646E-01-3.25729E+01
 -1       243-3.31780E-01-3.33477E-01 1.10519E+00 5.67867E-03-7.10537E+00-4.32089E+01
 -1       244 2.19854E+01 2.21430E+01-7.54312E+01 1.36633E-03-4.55555E+00-1.10120E+01
 -1       245-7.72806E+00-7.89751E+00 2.67315E+01 1.43052E-01-2.25623E+00-3.53787E+01
 -1       246 1.18904E+01 1.27617E+01-4.14651E+01-1.14167E-01-3.07469E+00-3.60246E+00
 -1       247 2.63607E+01 2.61043E+01-9.00407E+01-1.90152E-01-7.72189E+00-8.43714E+00
 -1       248 6.50556E+00 6.93438E+00-2.24171E+01 9.23970E-02-2.53674E+00-2.40138E+01
 -1       249-4.40077E+00-4.32468E+00 1.46708E+01-8.91367E-02-1.40767E-01-3.29751E+01
 -1       250-3.82401E+00-3.81574E+00 1.29791E+01-8.46177E-02-5.13044E+00-3.11934E+01
 -1       251 3.09574E+01 3.11604E+01-1.06068E+02 7.13338E-03-3.44610E-01-8.92534E-01
 -1       252-1.08780E+01-1.11105E+01 3.75783E+01 2.01425E-01-1.85737E-01-2.90916E+00
 -1       253 2.63183E+01 2.84313E+01-9.21797E+01-2.80608E-01-1.35944E+00-1.60625E+00
 -1       254 3.70951E+01 3.67350E+01-1.26558E+02-2.61613E-01-6.06937E-01-6.93324E-01
 -1       255 9.18325E+00 9.76589E+00-3.16092E+01 1.33431E-01-2.02978E-01-1.96731E+00
 -1       256-9.78789E+00-9.59853E+00 3.26333E+01-2.28672E-01-6.59344E-02-1.49090E+01
 -1       257-5.38409E+00-5.37278E+00 1.82628E+01-1.13180E-01-4.24558E-01-2.57251E+00
 -1       258 2.48053E+01 2.48365E+01-8.41136E+01 1.15613E-02 3.53164E+00 8.40342E+00
 -1       259-8.69594E+00-8.84818E+00 2.97436E+01 1.50663E-01 1.71445E+00 2.72798E+01
 -1       260 2.77073E+01 2.96829E+01-9.65227E+01-2.61232E-01 9.53167E-01 1.07404E+00
 -1       261 2.95709E+01 2.92833E+01-9.99680E+01-1.59280E-01 6.02211E+00 6.38209E+00
 -1       262 7.54794E+00 7.83602E+00-2.57127E+01 9.74608E-02 1.91316E+00 1.84853E+01
 -1       263-1.02438E+01-1.00631E+01 3.41357E+01-2.09374E-01 3.02473E-02 9.66699E+00
 -1       264-4.31427E+00-4.31314E+00 1.45774E+01-5.36551E-02 3.93526E+00 2.40102E+01
 -1       265 9.60579E+00 9.41284E+00-3.07681E+01 5.26997E-02 4.37234E+00 1.03720E+01
 -1       266-3.35491E+00-3.24429E+00 1.06239E+01-4.55155E-02 2.10074E+00 3.26928E+01
 -1       267 1.71299E+01 1.75109E+01-5.79135E+01-4.65220E-02 2.43254E+00 2.80922E+00
 -1       268 1.09410E+01 1.10641E+01-3.54574E+01 1.27614E-01 7.21937E+00 7.94757E+00
 -1       269 3.50335E+00 3.20869E+00-1.09516E+01-3.28644E-03 2.44050E+00 2.22733E+01
 -1       270-6.12756E+00-6.06333E+00 2.03804E+01-7.33474E-02 1.01124E-01 2.36534E+01
 -1       271-1.70457E+00-1.70315E+00 5.49726E+00 7.12920E-02 4.73404E+00 2.88064E+01
 -1       272 3.76403E-01-1.00263E+00 3.65451E+00 1.21887E-01 1.16184E+00 3.25110E+00
 -1       273 2.27579E-04 1.35431E-01-1.25736E+00 3.24040E-01 6.91243E-01 7.73297E+00
 -1       274 4.49086E+00 2.99170E+00-1.16310E+01 2.03866E-01 1.21803E+00 1.20589E+00
 -1       275-1.61275E-01-8.08534E-01 5.16065E+00 2.81646E-01 1.71140E+00 2.28466E+00
 -1       276 1.36976E+00-3.58677E-01-9.52909E-01 1.75968E-01 6.18930E-01 5.94526E+00
 -1       277-1.30297E+00-1.34109E+00 4.00813E+00 2.69958E-01-2.22738E-02 1.46067E+01
 -1       278-1.43281E-02-2.02901E-01-1.78080E-01 4.71720E-01 1.25425E+00 6.27573E+00
 -1       279 5.45405E-04 5.07773E-04 1.88815E+02 1.14361E-06 3.91973E+01 4.73145E+01
 -1       280-1.77134E+01-1.45899E+01 5.35327E+01 4.77574E+00-5.39079E+00 1.17058E+01
 -1       281-6.48771E-04-6.31970E-04 1.07396E+02-7.18049E-05 2.65078E+01 3.51996E+01
 -1       282-4.71281E+00-9.40775E+00 3.13446E+01 3.65915E+00-1.40233E+00 4.12360E+01
 -1       283-6.15758E-04-6.71125E-04 1.66347E+02-5.15434E-05 2.25549E+01 5.03753E+01
 -1       284-3.02894E+01-3.74433E+01 1.28048E+02-7.54353E+00 7.61188E+00 1.44420E+01
 -1       285-1.75070E+01-1.05209E+01 4.99839E+01 1.46190E+00 5.94779E+00 7.97896E+00
 -1       286 2.99149E+01 2.84529E+01-9.71603E+01-7.74228E-01 9.52657E-01 1.16279E+01
 -1       287 1.61116E+01 1.72320E+01-5.58563E+01-7.41383E-01 2.04448E+00 2.71233E+01
 -1       288 3.47977E+00 7.00681E+00-2.65017E+01 1.80467E+00-1.96529E+00 1.72210E+00
 -1       289 2.77214E+01 2.46494E+01-8.72641E+01 1.51906E-01 5.34895E+00 9.48783E+00
 -1       290 4.37942E+01 4.42772E+01-1.52962E+02 2.40842E-01 8.60558E-02 4.95266E-01
 -1       291 2.57666E+01 2.65943E+01-8.97073E+01 2.18982E-01 9.59357E-02 1.22248E+00
 -1       292 3.76283E+01 3.85519E+01-1.27320E+02 2.07100E-01-6.20465E-01 1.52451E+00
 -1       293 3.97779E+01 3.95126E+01-1.37843E+02 3.13368E-01 2.57253E-01 4.41044E-01
 -1       294 3.09604E+01 3.09710E+01-1.06491E+02-5.20479E-02-8.87584E-01-9.75183E+00
 -1       295 1.78991E+01 1.86342E+01-6.24556E+01-4.47785E-02-1.74403E+00-2.24360E+01
 -1       296 3.82461E+01 3.97590E+01-1.32162E+02 6.12083E-01 6.04939E-01-9.66655E-01
 -1       297 2.82333E+01 2.74945E+01-9.59405E+01 1.76930E-01-4.37151E+00-7.99137E+00
 -1       298-3.25834E+00-3.22394E+00 1.06342E+01 2.06652E-02-1.25373E+00-1.39232E+01
 -1       299-1.95058E+00-1.94848E+00 6.45375E+00 1.83764E-02-2.48167E+00-3.21152E+01
 -1       300 1.42190E+01 1.47343E+01-4.88688E+01 1.91421E-01 1.50303E+00-2.38204E+00
 -1       301-2.92673E+00-2.88683E+00 9.54060E+00 6.67566E-03-6.27752E+00-1.13940E+01
 -1       302-3.75111E+01-3.76037E+01 1.28398E+02 2.32575E-03-9.22244E-01-1.00679E+01
 -1       303-2.19971E+01-2.26310E+01 7.58483E+01-2.02534E-04-1.79833E+00-2.31880E+01
 -1       304-2.07253E+01-2.12371E+01 7.05813E+01-1.94333E-01 1.51217E+00-2.41052E+00
 -1       305-3.40436E+01-3.35110E+01 1.15576E+02-1.66194E-01-4.54391E+00-8.24526E+00
 -1       306-5.28085E+01-5.29277E+01 1.80548E+02 1.21423E-02-1.02936E-01-8.29733E-01
 -1       307-3.09877E+01-3.18554E+01 1.06725E+02 6.94534E-03-1.54050E-01-1.91396E+00
 -1       308-4.59763E+01-4.72177E+01 1.56907E+02-4.77647E-01 6.61085E-01-1.08120E+00
 -1       309-4.79108E+01-4.71738E+01 1.62505E+02-2.25135E-01-4.01645E-01-6.80610E-01
 -1       310-4.22407E+01-4.22590E+01 1.43177E+02 1.96795E-02 6.40540E-01 7.65214E+00
 -1       311-2.49623E+01-2.54524E+01 8.51542E+01 2.28012E-02 1.36684E+00 1.78062E+01
 -1       312-4.82642E+01-4.94248E+01 1.64300E+02-4.44666E-01-4.92595E-01 6.98350E-01
 -1       313-3.82212E+01-3.77314E+01 1.28778E+02-1.28029E-01 3.40855E+00 6.24013E+00
 -1       314-1.62433E+01-1.61299E+01 5.23731E+01 8.97047E-02 7.75283E-01 9.43729E+00
 -1       315-1.01773E+01-9.77143E+00 3.23001E+01 6.73639E-02 1.63564E+00 2.14755E+01
 -1       316-2.93706E+01-2.95944E+01 9.85796E+01-7.91891E-02-1.21912E+00 1.86031E+00
 -1       317-1.43140E+01-1.46191E+01 4.66968E+01 1.44265E-01 4.14913E+00 7.73842E+00
 -1       318 1.27900E-01 9.38052E-01-6.22066E+00 2.07474E-01 4.81897E-01 3.07441E+00
 -1       319-1.11751E+00 5.00512E-01-1.78538E+00 3.58431E-01 5.64791E-01 5.85248E+00
 -1       320-6.80873E+00-5.92800E+00 1.97982E+01 3.47018E-01-7.22337E-01 7.01670E-01
 -1       321 3.84542E-01 1.62195E-01-5.37697E+00 4.20514E-01 1.35435E+00 2.27059E+00
 -3
    1PSTEP                        32           1           1          
    1PGM                1.000000E+00                                  
    1PGK                6.941641E+09                                  
    1PHID                         -1                                  
    1PSUBC                         0                                  
    1PMODE                         8                                  
  100CL  108 13260.23419         321                     2    8MODAL      1
 -4  ERROR       1    1
 -5  STR(%)      1    1    0    0
 -1         1 1.83013E+01
 -1         2 2.10924E+01
 -1         3 2.10924E+01
 -1         4 1.83013E+01
 -1         5 2.10924E+01
 -1         6 2.10924E+01
 -1         7 2.10924E+01
 -1         8 2.10924E+01
 -1         9 1.96969E+01
 -1        10 2.10924E+01
 -1        11 1.96969E+01
 -1        12 1.83013E+01
 -1        13 1.96969E+01
 -1        14 2.10924E+01
 -1        15 2.10924E+01
 -1        16 1.96969E+01
 -1        17 2.10924E+01
 -1        18 2.10924E+01
 -1        19 2.10924E+01
 -1        20 2.10924E+01
 -1        21 2.12010E+01
 -1        22 1.81974E+01
 -1        23 2.12010E+01
 -1        24 2.12010E+01
 -1        25 2.11467E+01
 -1        26 1.96992E+01
 -1        27 1.82494E+01
 -1        28 2.12010E+01
 -1        29 1.96992E+01
 -1        30 2.11467E+01
 -1        31 2.12010E+01
 -1        32 2.11467E+01
 -1        33 2.15901E+01
 -1        34 1.84246E+01
 -1        35 2.15901E+01
 -1        36 2.15901E+01
 -1        37 2.13955E+01
 -1        38 2.00074E+01
 -1        39 1.83110E+01
 -1        40 2.15901E+01
 -1        41 2.00074E+01
 -1        42 2.13955E+01
 -1        43 2.15901E+01
 -1        44 2.13955E+01
 -1        45 2.15901E+01
 -1        46 1.84246E+01
 -1        47 2.15901E+01
 -1        48 2.15901E+01
 -1        49 2.15901E+01
 -1        50 2.00074E+01
 -1        51 1.84246E+01
 -1        52 2.15901E+01
 -1        53 2.00074E+01
 -1        54 2.15901E+01
 -1        55 2.15901E+01
 -1        56 2.15901E+01
 -1        57 1.68822E+01
 -1        58 1.68822E+01
 -1        59 1.68822E+01
 -1        60 1.68822E+01
 -1        61 1.92362E+01
 -1        62 1.68822E+01
 -1        63 1.76534E+01
 -1        64 1.68822E+01
 -1        65 1.68822E+01
 -1        66 1.92362E+01
 -1        67 1.68822E+01
 -1        68 1.92362E+01
 -1        69 2.13232E+01
 -1        70 1.82228E+01
 -1        71 2.13232E+01
 -1        72 2.13232E+01
 -1        73 1.91027E+01
 -1        74 1.97730E+01
 -1        75 1.75525E+01
 -1        76 2.13232E+01
 -1        77 1.97730E+01
 -1        78 1.91027E+01
 -1        79 2.13232E+01
 -1        80 1.91027E+01
 -1        81 2.16169E+01
 -1        82 1.84457E+01
 -1        83 2.16169E+01
 -1        84 2.16169E+01
 -1        85 2.14700E+01
 -1        86 2.00313E+01
 -1        87 1.83342E+01
 -1        88 2.16169E+01
 -1        89 2.00313E+01
 -1        90 2.14700E+01
 -1        91 2.16169E+01
 -1        92 2.14700E+01
 -1        93 2.16169E+01
 -1        94 1.84457E+01
 -1        95 2.16169E+01
 -1        96 2.16169E+01
 -1        97 2.16169E+01
 -1        98 2.00313E+01
 -1        99 1.84457E+01
 -1       100 2.16169E+01
 -1       101 2.00313E+01
 -1       102 2.16169E+01
 -1       103 2.16169E+01
 -1       104 2.16169E+01
 -1       105 2.12056E+01
 -1       106 2.11534E+01
 -1       107 2.12056E+01
 -1       108 2.12056E+01
 -1       109 2.14113E+01
 -1       110 2.11795E+01
 -1       111 1.97995E+01
 -1       112 2.12056E+01
 -1       113 2.11795E+01
 -1       114 2.14113E+01
 -1       115 2.12056E+01
 -1       116 2.14113E+01
 -1       117 2.12056E+01
 -1       118 2.11534E+01
 -1       119 2.12056E+01
 -1       120 2.12056E+01
 -1       121 2.12056E+01
 -1       122 2.11795E+01
 -1       123 2.11534E+01
 -1       124 2.12056E+01
 -1       125 2.11795E+01
 -1       126 2.12056E+01
 -1       127 2.12056E+01
 -1       128 2.12056E+01
 -1       129 2.10924E+01
 -1       130 2.10924E+01
 -1       131 2.10924E+01
 -1       132 2.10924E+01
 -1       133 2.10924E+01
 -1       134 2.10924E+01
 -1       135 2.10924E+01
 -1       136 2.10924E+01
 -1       137 2.10924E+01
 -1       138 2.10924E+01
 -1       139 2.10924E+01
 -1       140 2.10924E+01
 -1       141 2.12010E+01
 -1       142 2.12010E+01
 -1       143 2.12010E+01
 -1       144 2.12010E+01
 -1       145 2.11467E+01
 -1       146 2.12010E+01
 -1       147 2.11467E+01
 -1       148 2.15901E+01
 -1       149 2.15901E+01
 -1       150 2.15901E+01
 -1       151 2.15901E+01
 -1       152 2.13955E+01
 -1       153 2.15901E+01
 -1       154 2.13955E+01
 -1       155 2.15901E+01
 -1       156 2.15901E+01
 -1       157 2.15901E+01
 -1       158 2.15901E+01
 -1       159 2.15901E+01
 -1       160 2.15901E+01
 -1       161 2.15901E+01
 -1       162 1.68822E+01
 -1       163 1.54450E+01
 -1       164 1.68822E+01
 -1       165 1.61636E+01
 -1       166 1.92362E+01
 -1       167 1.61636E+01
 -1       168 1.85175E+01
 -1       169 2.13232E+01
 -1       170 2.13232E+01
 -1       171 2.13232E+01
 -1       172 2.13232E+01
 -1       173 1.91027E+01
 -1       174 2.13232E+01
 -1       175 1.83841E+01
 -1       176 2.16169E+01
 -1       177 2.16169E+01
 -1       178 2.16169E+01
 -1       179 2.16169E+01
 -1       180 2.14700E+01
 -1       181 2.16169E+01
 -1       182 2.14700E+01
 -1       183 2.16169E+01
 -1       184 2.16169E+01
 -1       185 2.16169E+01
 -1       186 2.16169E+01
 -1       187 2.16169E+01
 -1       188 2.16169E+01
 -1       189 2.16169E+01
 -1       190 2.12056E+01
 -1       191 2.12056E+01
 -1       192 2.12056E+01
 -1       193 2.12056E+01
 -1       194 2.14113E+01
 -1       195 2.12056E+01
 -1       196 2.14113E+01
 -1       197 2.12056E+01
 -1       198 2.12056E+01
 -1       199 2.12056E+01
 -1       200 2.12056E+01
 -1       201 2.12056E+01
 -1       202 2.12056E+01
 -1       203 2.12056E+01
 -1       204 2.10924E+01
 -1       205 2.10924E+01
 -1       206 2.10924E+01
 -1       207 2.10924E+01
 -1       208 2.10924E+01
 -1       209 2.10924E+01
 -1       210 2.10924E+01
 -1       211 2.10924E+01
 -1       212 2.10924E+01
 -1       213 2.10924E+01
 -1       214 2.10924E+01
 -1       215 2.10924E+01
 -1       216 2.12010E+01
 -1       217 2.12010E+01
 -1       218 2.11467E+01
 -1       219 2.12010E+01
 -1       220 2.12010E+01
 -1       221 2.11467E+01
 -1       222 2.12010E+01
 -1       223 2.15901E+01
 -1       224 2.15901E+01
 -1       225 2.13955E+01
 -1       226 2.15901E+01
 -1       227 2.15901E+01
 -1       228 2.13955E+01
 -1       229 2.15901E+01
 -1       230 2.15901E+01
 -1       231 2.15901E+01
 -1       232 2.15901E+01
 -1       233 2.15901E+01
 -1       234 2.15901E+01
 -1       235 2.15901E+01
 -1       236 2.15901E+01
 -1       237 1.54450E+01
 -1       238 1.68822E+01
 -1       239 1.85175E+01
 -1       240 1.61636E+01
 -1       241 1.61636E+01
 -1       242 1.92362E+01
 -1       243 1.68822E+01
 -1       244 2.13232E+01
 -1       245 2.13232E+01
 -1       246 1.83841E+01
 -1       247 2.13232E+01
 -1       248 2.13232E+01
 -1       249 1.91027E+01
 -1       250 2.13232E+01
 -1       251 2.16169E+01
 -1       252 2.16169E+01
 -1       253 2.14700E+01
 -1       254 2.16169E+01
 -1       255 2.16169E+01
 -1       256 2.14700E+01
 -1       257 2.16169E+01
 -1       258 2.16169E+01
 -1       259 2.16169E+01
 -1       260 2.16169E+01
 -1       261 2.16169E+01
 -1       262 2.16169E+01
 -1       263 2.16169E+01
 -1       264 2.16169E+01
 -1       265 2.12056E+01
 -1       266 2.12056E+01
 -1       267 2.14113E+01
 -1       268 2.12056E+01
 -1       269 2.12056E+01
 -1       270 2.14113E+01
 -1       271 2.12056E+01
 -1       272 2.12056E+01
 -1       273 2.12056E+01
 -1       274 2.12056E+01
 -1       275 2.12056E+01
 -1       276 2.12056E+01
 -1       277 2.12056E+01
 -1       278 2.12056E+01
 -1       279 1.83013E+01
 -1       280 1.83013E+01
 -1       281 1.96969E+01
 -1       282 1.96969E+01
 -1       283 1.96969E+01
 -1       284 1.83013E+01
 -1       285 1.96969E+01
 -1       286 1.81974E+01
 -1       287 1.96992E+01
 -1       288 1.82494E+01
 -1       289 1.96992E+01
 -1       290 1.84246E+01
 -1       291 2.00074E+01
 -1       292 1.83110E+01
 -1       293 2.00074E+01
 -1       294 1.84246E+01
 -1       295 2.00074E+01
 -1       296 1.84246E+01
 -1       297 2.00074E+01
 -1       298 1.68822E+01
 -1       299 1.68822E+01
 -1       300 1.76534E+01
 -1       301 1.68822E+01
 -1       302 1.82228E+01
 -1       303 1.97730E+01
 -1       304 1.75525E+01
 -1       305 1.97730E+01
 -1       306 1.84457E+01
 -1       307 2.00313E+01
 -1       308 1.83342E+01
 -1       309 2.00313E+01
 -1       310 1.84457E+01
 -1       311 2.00313E+01
 -1       312 1.84457E+01
 -1       313 2.00313E+01
 -1       314 2.11534E+01
 -1       315 2.11795E+01
 -1       316 1.97995E+01
 -1       317 2.11795E+01
 -1       318 2.11534E+01
 -1       319 2.11795E+01
 -1       320 2.11534E+01
 -1       321 2.11795E+01
 -3
    1PSTEP                        33           1           1          
    1PGM                1.000000E+00                                  
    1PGK                1.974600E+10                                  
    1PHID                         -1                                  
    1PSUBC                         0                                  
    1PMODE                         9                                  
  100CL  109 22364.52687         321                     2    9MODAL      1
 -4  DISP        4    1
 -5  D1          1    2    1    0
 -5  D2          1    2    2    0
 -5  D3          1    2    3    0
 -5  ALL         1    2    0    0    1ALL
 -1         1 0.00000E+00 0.00000E+00 0.00000E+00
 -1         2 0.00000E+00 0.00000E+00 0.00000E+00
 -1         3-1.33227E-15 2.67599E+00-1.39888E-14
 -1         4-2.66413E+00 2.66413E+00-1.43219E-14
 -1         5 0.00000E+00 0.00000E+00 0.00000E+00
 -1         6 0.00000E+00 0.00000E+00 0.00000E+00
 -1         7-6.66134E-15 3.86358E-14-1.62093E-14
 -1         8-2.67599E+00 3.73035E-14-2.05391E-14
 -1         9 0.00000E+00 0.00000E+00 0.00000E+00
 -1        10-5.99520E-15 1.33176E+00-5.10703E-15
 -1        11-1.33660E+00 2.66867E+00 2.40878E-01
 -1        12-1.28081E+00 1.28081E+00-1.36002E-14
 -1        13 0.00000E+00 0.00000E+00 0.00000E+00
 -1        14 0.00000E+00 0.00000E+00 0.00000E+00
 -1        15-5.99520E-15 1.33542E+00-1.15463E-14
 -1        16-2.66867E+00 1.33660E+00-2.40878E-01
 -1        17 0.00000E+00 0.00000E+00 0.00000E+00
 -1        18-7.71605E-15 1.59872E-14-5.66214E-15
 -1        19-1.33542E+00 4.04121E-14-1.82632E-14
 -1        20-1.33176E+00 1.73195E-14-1.56541E-14
 -1        21 1.05471E-15 4.94303E+00-4.17444E-14
 -1        22-4.96471E+00 4.96471E+00 1.52656E-14
 -1        23 5.05151E-15-7.66054E-15-3.28626E-14
 -1        24-4.94303E+00-4.88498E-15 2.54241E-14
 -1        25-7.78544E-15 3.92376E+00-2.35367E-14
 -1        26-2.47653E+00 4.95561E+00 1.19691E-01
 -1        27-3.94841E+00 3.94841E+00-3.88578E-15
 -1        28 2.22045E-15 2.47477E+00-3.70814E-14
 -1        29-4.95561E+00 2.47653E+00-1.19691E-01
 -1        30-6.32827E-15 3.68594E-14-2.55351E-14
 -1        31-2.47477E+00-1.99840E-15-8.65974E-15
 -1        32-3.92376E+00 4.46310E-14-7.32747E-15
 -1        33 1.65423E-14 6.09392E+00-4.66294E-14
 -1        34-6.11303E+00 6.11303E+00 9.76996E-15
 -1        35 3.08642E-14-2.03226E-13-3.99680E-14
 -1        36-6.09392E+00-2.04781E-13 1.78746E-14
 -1        37 1.97620E-14 5.67495E+00-5.22915E-14
 -1        38-3.05380E+00 6.10416E+00 3.90821E-02
 -1        39-5.69392E+00 5.69392E+00 2.35367E-14
 -1        40 1.97620E-14 3.04836E+00-4.50751E-14
 -1        41-6.10416E+00 3.05380E+00-3.90821E-02
 -1        42 1.85962E-14-1.12005E-13-3.84137E-14
 -1        43-3.04836E+00-2.00798E-13-1.60982E-14
 -1        44-5.67495E+00-1.10134E-13 3.03646E-14
 -1        45-1.70974E-14 5.90912E+00-4.10783E-14
 -1        46-5.92968E+00 5.92968E+00-4.82947E-14
 -1        47 6.66134E-15-2.44860E-13-5.08482E-14
 -1        48-5.90912E+00-2.55795E-13-7.23310E-14
 -1        49 1.46549E-14 6.17362E+00-3.15303E-14
 -1        50-2.96097E+00 5.92050E+00-6.41665E-02
 -1        51-6.19594E+00 6.19594E+00-1.17684E-14
 -1        52-1.70974E-14 2.95666E+00-4.80727E-14
 -1        53-5.92050E+00 2.96097E+00 6.41665E-02
 -1        54 3.26406E-14-2.54907E-13-4.18554E-14
 -1        55-2.95666E+00-2.19616E-13-6.12427E-14
 -1        56-6.17362E+00-2.69562E-13-2.78111E-14
 -1        57-1.67644E-14 4.42353E+00-6.46150E-14
 -1        58-4.43849E+00 4.43849E+00-1.34559E-13
 -1        59-1.86517E-14-1.66089E-13-4.55191E-14
 -1        60-4.42353E+00-1.73639E-13-1.04028E-13
 -1        61 1.46549E-14 5.31421E+00-5.03625E-14
 -1        62-2.21665E+00 4.43172E+00-1.50413E-01
 -1        63-5.33332E+00 5.33332E+00-1.01696E-13
 -1        64-3.26406E-14 2.21315E+00-5.25691E-14
 -1        65-4.43172E+00 2.21665E+00 1.50413E-01
 -1        66-1.59872E-14-2.02949E-13-6.92779E-14
 -1        67-2.21315E+00-2.44693E-13-7.42739E-14
 -1        68-5.31421E+00-2.07834E-13-6.54754E-14
 -1        69 5.41789E-14 1.96466E+00-7.86038E-14
 -1        70-1.97137E+00 1.97137E+00-1.25788E-13
 -1        71 8.79297E-14-8.81517E-14-4.04121E-14
 -1        72-1.96466E+00-9.42579E-14-9.50351E-14
 -1        73 2.18731E-14 3.28557E+00-7.59393E-14
 -1        74-9.84482E-01 1.96835E+00-2.04157E-01
 -1        75-3.29736E+00 3.29736E+00-1.46994E-13
 -1        76 9.43690E-14 9.82978E-01-5.55112E-14
 -1        77-1.96835E+00 9.84482E-01 2.04157E-01
 -1        78-1.19904E-14-1.35447E-13-2.55351E-14
 -1        79-9.82978E-01-6.81677E-14-7.90479E-14
 -1        80-3.28557E+00-7.01661E-14-1.38334E-13
 -1        81 9.99201E-14-9.26415E-01-1.55431E-14
 -1        82 9.29541E-01-9.29541E-01-4.84057E-14
 -1        83 9.81992E-14 2.62013E-14-2.63123E-14
 -1        84 9.26415E-01 7.81597E-14-6.43929E-14
 -1        85 9.50351E-14 5.33974E-01-5.49560E-14
 -1        86 4.64225E-01-9.28130E-01-2.12751E-01
 -1        87-5.35884E-01 5.35884E-01-7.01661E-14
 -1        88 6.69464E-14-4.63498E-01-1.90958E-14
 -1        89 9.28130E-01-4.64225E-01 2.12751E-01
 -1        90 9.68114E-14-2.84217E-14-3.56382E-14
 -1        91 4.63498E-01 5.41789E-14-4.39648E-14
 -1        92-5.33974E-01 2.48690E-14-6.55032E-14
 -1        93 6.70575E-14-3.61392E+00 3.55271E-14
 -1        94 3.62642E+00-3.62642E+00 6.39766E-14
 -1        95 3.19744E-14 1.57652E-14 4.66294E-15
 -1        96 3.61392E+00-7.26086E-14 5.22915E-14
 -1        97 7.48290E-14-2.33513E+00 3.15303E-14
 -1        98 1.81098E+00-3.62078E+00-1.75141E-01
 -1        99 2.34342E+00-2.34342E+00 8.65974E-15
 -1       100 2.84217E-14-1.80816E+00 2.62013E-14
 -1       101 3.62078E+00-1.81098E+00 1.75141E-01
 -1       102 6.88338E-14 8.28226E-14-5.96224E-15
 -1       103 1.80816E+00-6.43929E-15 3.06977E-14
 -1       104 2.33513E+00-1.55431E-14-8.88178E-16
 -1       105-1.90958E-14-5.50459E+00 7.00551E-14
 -1       106 5.52357E+00-5.52357E+00 9.59233E-14
 -1       107-1.11022E-14 1.11022E-15 1.55431E-14
 -1       108 5.50459E+00 7.06102E-14 1.59872E-14
 -1       109 2.15106E-14-4.69026E+00 6.56142E-14
 -1       110 2.75839E+00-5.51503E+00-9.62874E-02
 -1       111 4.70759E+00-4.70759E+00 7.63278E-14
 -1       112-1.11022E-13-2.75408E+00 4.14113E-14
 -1       113 5.51503E+00-2.75839E+00 9.62874E-02
 -1       114-1.49880E-14 4.24105E-14 2.37588E-14
 -1       115 2.75408E+00 4.37428E-14 2.29608E-14
 -1       116 4.69026E+00 7.81597E-14 2.11497E-14
 -1       117-2.34146E-13-6.18995E+00 1.07470E-13
 -1       118 6.21567E+00-6.21567E+00 2.39808E-14
 -1       119-1.91236E-13 1.66978E-13 2.86438E-14
 -1       120 6.18995E+00 2.53131E-13 1.77636E-15
 -1       121-4.88498E-14-6.01491E+00 7.53841E-14
 -1       122 3.10535E+00-6.20346E+00-8.74621E-03
 -1       123 6.03317E+00-6.03317E+00 5.15143E-14
 -1       124-2.29594E-13-3.09637E+00 5.12645E-14
 -1       125 6.20346E+00-3.10535E+00 8.74621E-03
 -1       126-1.15019E-13 1.62481E-13 5.29576E-14
 -1       127 3.09637E+00 3.69482E-13-1.75415E-14
 -1       128 6.01491E+00 3.82527E-13-6.39488E-14
 -1       129 0.00000E+00 0.00000E+00 0.00000E+00
 -1       130 0.00000E+00 0.00000E+00 0.00000E+00
 -1       131-6.66134E-15-2.67599E+00-1.85685E-14
 -1       132-2.66413E+00-2.66413E+00-1.57652E-14
 -1       133 0.00000E+00 0.00000E+00 0.00000E+00
 -1       134 0.00000E+00 0.00000E+00 0.00000E+00
 -1       135-7.54952E-15-1.33542E+00-1.95816E-14
 -1       136-2.66867E+00-1.33660E+00 2.40878E-01
 -1       137 0.00000E+00 0.00000E+00 0.00000E+00
 -1       138-9.15240E-15-1.33176E+00-1.16573E-14
 -1       139-1.33660E+00-2.66867E+00-2.40878E-01
 -1       140-1.28081E+00-1.28081E+00-1.98175E-14
 -1       141 8.65974E-15-4.94303E+00-2.88936E-14
 -1       142-4.96471E+00-4.96471E+00 3.30846E-14
 -1       143 1.25455E-14-2.47477E+00-2.87548E-14
 -1       144-4.95561E+00-2.47653E+00 1.19691E-01
 -1       145 1.55431E-15-3.92376E+00-2.23155E-14
 -1       146-2.47653E+00-4.95561E+00-1.19691E-01
 -1       147-3.94841E+00-3.94841E+00 1.21014E-14
 -1       148 2.10942E-14-6.09392E+00-4.01901E-14
 -1       149-6.11303E+00-6.11303E+00 1.95399E-14
 -1       150 2.73115E-14-3.04836E+00-4.10783E-14
 -1       151-6.10416E+00-3.05380E+00 3.90821E-02
 -1       152 1.65423E-14-5.67495E+00-3.57492E-14
 -1       153-3.05380E+00-6.10416E+00-3.90821E-02
 -1       154-5.69392E+00-5.69392E+00 4.62963E-14
 -1       155 1.41553E-14-5.90912E+00-5.72875E-14
 -1       156-5.92968E+00-5.92968E+00-6.00214E-14
 -1       157 1.16573E-14-2.95666E+00-4.68514E-14
 -1       158-5.92050E+00-2.96097E+00-6.41665E-02
 -1       159 4.08562E-14-6.17362E+00-5.30687E-14
 -1       160-2.96097E+00-5.92050E+00 6.41665E-02
 -1       161-6.19594E+00-6.19594E+00-3.19744E-14
 -1       162-2.04281E-14-4.42353E+00-2.26485E-14
 -1       163-4.43849E+00-4.43849E+00-8.28226E-14
 -1       164-7.99361E-15-2.21315E+00-3.53051E-14
 -1       165-4.43172E+00-2.21665E+00-1.50413E-01
 -1       166-1.24345E-14-5.31421E+00-2.35367E-14
 -1       167-2.21665E+00-4.43172E+00 1.50413E-01
 -1       168-5.33332E+00-5.33332E+00-9.52571E-14
 -1       169 5.90639E-14-1.96466E+00-5.32907E-15
 -1       170-1.97137E+00-1.97137E+00-4.30767E-14
 -1       171 6.08402E-14-9.82978E-01-2.50910E-14
 -1       172-1.96835E+00-9.84482E-01-2.04157E-01
 -1       173 1.99840E-15-3.28557E+00-2.22045E-14
 -1       174-9.84482E-01-1.96835E+00 2.04157E-01
 -1       175-3.29736E+00-3.29736E+00-5.81757E-14
 -1       176 1.15463E-13 9.26415E-01-2.48690E-14
 -1       177 9.29541E-01 9.29541E-01-3.90799E-14
 -1       178 1.21680E-13 4.63498E-01-2.84217E-14
 -1       179 9.28130E-01 4.64225E-01-2.12751E-01
 -1       180 9.76996E-14-5.33974E-01-1.73195E-14
 -1       181 4.64225E-01 9.28130E-01 2.12751E-01
 -1       182-5.35884E-01-5.35884E-01-7.43849E-14
 -1       183 7.63833E-14 3.61392E+00-1.99840E-14
 -1       184 3.62642E+00 3.62642E+00-7.50788E-15
 -1       185-2.22045E-16 1.80816E+00 9.49241E-15
 -1       186 3.62078E+00 1.81098E+00-1.75141E-01
 -1       187 8.12683E-14 2.33513E+00-2.62013E-14
 -1       188 1.81098E+00 3.62078E+00 1.75141E-01
 -1       189 2.34342E+00 2.34342E+00-5.77316E-15
 -1       190-2.97540E-14 5.50459E+00-3.95239E-14
 -1       191 5.52357E+00 5.52357E+00-2.42861E-14
 -1       192-2.30926E-14 2.75408E+00-1.77636E-14
 -1       193 5.51503E+00 2.75839E+00-9.62874E-02
 -1       194-8.60423E-15 4.69026E+00-3.30846E-14
 -1       195 2.75839E+00 5.51503E+00 9.62874E-02
 -1       196 4.70759E+00 4.70759E+00-4.77396E-15
 -1       197-2.41807E-13 6.18995E+00-5.77316E-14
 -1       198 6.21567E+00 6.21567E+00-2.86993E-14
 -1       199-2.46081E-13 3.09637E+00-1.06581E-14
 -1       200 6.20346E+00 3.10535E+00-8.74621E-03
 -1       201-8.48210E-14 6.01491E+00-9.90319E-14
 -1       202 3.10535E+00 6.20346E+00 8.74621E-03
 -1       203 6.03317E+00 6.03317E+00-2.49800E-14
 -1       204 0.00000E+00 0.00000E+00 0.00000E+00
 -1       205 2.66413E+00 2.66413E+00-8.43769E-15
 -1       206 0.00000E+00 0.00000E+00 0.00000E+00
 -1       207 2.67599E+00 3.24185E-14-1.50990E-14
 -1       208 0.00000E+00 0.00000E+00 0.00000E+00
 -1       209 1.28081E+00 1.28081E+00 9.54792E-15
 -1       210 1.33660E+00 2.66867E+00-2.40878E-01
 -1       211 0.00000E+00 0.00000E+00 0.00000E+00
 -1       212 2.66867E+00 1.33660E+00 2.40878E-01
 -1       213 0.00000E+00 0.00000E+00 0.00000E+00
 -1       214 1.33176E+00 1.42109E-14 2.22045E-15
 -1       215 1.33542E+00 3.64153E-14-1.37668E-14
 -1       216 4.96471E+00 4.96471E+00-9.50351E-14
 -1       217 4.94303E+00-2.77556E-14-8.39329E-14
 -1       218 3.94841E+00 3.94841E+00-4.79616E-14
 -1       219 2.47653E+00 4.95561E+00-1.19691E-01
 -1       220 4.95561E+00 2.47653E+00 1.19691E-01
 -1       221 3.92376E+00 2.93099E-14-4.39648E-14
 -1       222 2.47477E+00-3.10862E-14-6.06182E-14
 -1       223 6.11303E+00 6.11303E+00-1.01585E-13
 -1       224 6.09392E+00-2.22183E-13-1.06137E-13
 -1       225 5.69392E+00 5.69392E+00-1.26787E-13
 -1       226 3.05380E+00 6.10416E+00-3.90821E-02
 -1       227 6.10416E+00 3.05380E+00 3.90821E-02
 -1       228 5.67495E+00-1.15241E-13-1.04472E-13
 -1       229 3.04836E+00-2.06613E-13-7.00551E-14
 -1       230 5.92968E+00 5.92968E+00-1.11022E-14
 -1       231 5.90912E+00-2.80220E-13-1.33227E-15
 -1       232 6.19594E+00 6.19594E+00-6.17284E-14
 -1       233 2.96097E+00 5.92050E+00 6.41665E-02
 -1       234 5.92050E+00 2.96097E+00-6.41665E-02
 -1       235 6.17362E+00-2.78666E-13-6.75016E-14
 -1       236 2.95666E+00-2.65454E-13-2.39808E-14
 -1       237 4.43849E+00 4.43849E+00-5.49560E-15
 -1       238 4.42353E+00-1.43885E-13 2.48690E-14
 -1       239 5.33332E+00 5.33332E+00 8.88178E-15
 -1       240 2.21665E+00 4.43172E+00 1.50413E-01
 -1       241 4.43172E+00 2.21665E+00-1.50413E-01
 -1       242 5.31421E+00-1.96509E-13 4.97380E-14
 -1       243 2.21315E+00-8.39329E-14-1.59872E-14
 -1       244 1.97137E+00 1.97137E+00-1.37668E-14
 -1       245 1.96466E+00-9.54792E-15 2.70894E-14
 -1       246 3.29736E+00 3.29736E+00-1.02141E-14
 -1       247 9.84482E-01 1.96835E+00 2.04157E-01
 -1       248 1.96835E+00 9.84482E-01-2.04157E-01
 -1       249 3.28557E+00-1.34337E-13-2.22045E-16
 -1       250 9.82978E-01-6.86118E-14-8.88178E-15
 -1       251-9.29541E-01-9.29541E-01 3.99680E-15
 -1       252-9.26415E-01 6.97220E-14 1.70974E-14
 -1       253 5.35884E-01 5.35884E-01 1.04361E-14
 -1       254-4.64225E-01-9.28130E-01 2.12751E-01
 -1       255-9.28130E-01-4.64225E-01-2.12751E-01
 -1       256 5.33974E-01 3.10862E-15 2.28706E-14
 -1       257-4.63498E-01 2.62013E-14-9.02056E-15
 -1       258-3.62642E+00-3.62642E+00 5.46230E-14
 -1       259-3.61392E+00 6.08402E-14-1.57652E-14
 -1       260-2.34342E+00-2.34342E+00 3.64153E-14
 -1       261-1.81098E+00-3.62078E+00 1.75141E-01
 -1       262-3.62078E+00-1.81098E+00-1.75141E-01
 -1       263-2.33513E+00 1.09024E-13-2.22045E-16
 -1       264-1.80816E+00 4.68514E-14 2.88658E-15
 -1       265-5.52357E+00-5.52357E+00 6.01741E-14
 -1       266-5.50459E+00-8.88178E-16 3.06422E-14
 -1       267-4.70759E+00-4.70759E+00 1.11910E-13
 -1       268-2.75839E+00-5.51503E+00 9.62874E-02
 -1       269-5.51503E+00-2.75839E+00-9.62874E-02
 -1       270-4.69026E+00 1.51434E-13 1.01447E-14
 -1       271-2.75408E+00 6.06182E-14 2.46470E-14
 -1       272-6.21567E+00-6.21567E+00 7.10543E-14
 -1       273-6.18995E+00 2.15827E-13 7.63833E-14
 -1       274-6.03317E+00-6.03317E+00 8.74856E-14
 -1       275-3.10535E+00-6.20346E+00 8.74621E-03
 -1       276-6.20346E+00-3.10535E+00-8.74621E-03
 -1       277-6.01491E+00-5.08760E-14 2.22045E-14
 -1       278-3.09637E+00 1.22569E-13-7.10543E-15
 -1       279 0.00000E+00 0.00000E+00 0.00000E+00
 -1       280 2.66413E+00-2.66413E+00-1.90403E-14
 -1       281 0.00000E+00 0.00000E+00 0.00000E+00
 -1       282 2.66867E+00-1.33660E+00-2.40878E-01
 -1       283 0.00000E+00 0.00000E+00 0.00000E+00
 -1       284 1.28081E+00-1.28081E+00-4.45824E-15
 -1       285 1.33660E+00-2.66867E+00 2.40878E-01
 -1       286 4.96471E+00-4.96471E+00-8.50153E-14
 -1       287 4.95561E+00-2.47653E+00-1.19691E-01
 -1       288 3.94841E+00-3.94841E+00-5.08482E-14
 -1       289 2.47653E+00-4.95561E+00 1.19691E-01
 -1       290 6.11303E+00-6.11303E+00-9.37028E-14
 -1       291 6.10416E+00-3.05380E+00-3.90821E-02
 -1       292 5.69392E+00-5.69392E+00-1.10745E-13
 -1       293 3.05380E+00-6.10416E+00 3.90821E-02
 -1       294 5.92968E+00-5.92968E+00-2.48690E-14
 -1       295 5.92050E+00-2.96097E+00 6.41665E-02
 -1       296 6.19594E+00-6.19594E+00-5.99520E-14
 -1       297 2.96097E+00-5.92050E+00-6.41665E-02
 -1       298 4.43849E+00-4.43849E+00 3.68594E-14
 -1       299 4.43172E+00-2.21665E+00 1.50413E-01
 -1       300 5.33332E+00-5.33332E+00 1.86517E-14
 -1       301 2.21665E+00-4.43172E+00-1.50413E-01
 -1       302 1.97137E+00-1.97137E+00 2.08722E-14
 -1       303 1.96835E+00-9.84482E-01 2.04157E-01
 -1       304 3.29736E+00-3.29736E+00 3.34455E-14
 -1       305 9.84482E-01-1.96835E+00-2.04157E-01
 -1       306-9.29541E-01 9.29541E-01 9.54792E-15
 -1       307-9.28130E-01 4.64225E-01 2.12751E-01
 -1       308 5.35884E-01-5.35884E-01 3.41949E-14
 -1       309-4.64225E-01 9.28130E-01-2.12751E-01
 -1       310-3.62642E+00 3.62642E+00-5.46230E-14
 -1       311-3.62078E+00 1.81098E+00 1.75141E-01
 -1       312-2.34342E+00 2.34342E+00-3.56937E-14
 -1       313-1.81098E+00 3.62078E+00-1.75141E-01
 -1       314-5.52357E+00 5.52357E+00-2.66454E-14
 -1       315-5.51503E+00 2.75839E+00 9.62874E-02
 -1       316-4.70759E+00 4.70759E+00-3.24185E-14
 -1       317-2.75839E+00 5.51503E+00-9.62874E-02
 -1       318-6.21567E+00 6.21567E+00-1.24345E-14
 -1       319-6.20346E+00 3.10535E+00 8.74621E-03
 -1       320-6.03317E+00 6.03317E+00 3.28626E-14
 -1       321-3.10535E+00 6.20346E+00-8.74621E-03
 -3
    1PSTEP                        34           1           1          
    1PGM                1.000000E+00                                  
    1PGK                1.974600E+10                                  
    1PHID                         -1                                  
    1PSUBC                         0                                  
    1PMODE                         9                                  
  100CL  109 22364.52687         321                     2    9MODAL      1
 -4  STRESS      6    1
 -5  SXX         1    4    1    1
 -5  SYY         1    4    2    2
 -5  SZZ         1    4    3    3
 -5  SXY         1    4    1    2
 -5  SYZ         1    4    2    3
 -5  SZX         1    4    3    1
 -1         1-1.68237E+07 1.68237E+07-1.13692E+00-1.84244E-02 1.98618E+13-1.98618E+13
 -1         2-1.28275E-01-1.46067E-01-2.17686E-01 2.13283E+06 2.14120E+13-1.88416E-01
 -1         3 5.32150E-01-9.23462E-02-2.07062E-01 6.50854E+10 3.74729E+13-2.26547E-01
 -1         4 2.03452E+11-2.03452E+11 3.21744E-01-2.82903E-01 7.47738E+12-7.47738E+12
 -1         5-5.14692E-01-4.98552E-01-1.18847E+00-2.13283E+06 2.56958E-01-2.14120E+13
 -1         6-6.09393E-02-7.65679E-02-1.76883E-01 2.49347E-03 2.01581E-01-1.90584E-01
 -1         7-7.63484E-02 5.84404E-02-4.94499E-01-2.66662E-01 2.66289E-01 2.25594E-01
 -1         8 3.56445E-02-5.21088E-01-5.94788E-02-6.50854E+10 3.92807E-01-3.74729E+13
 -1         9 2.91837E+12 2.91833E+12 6.80949E+12 9.90182E+05 2.06265E+13-9.96813E+12
 -1        10 1.36230E-01-1.54785E-01-3.00415E-01 7.59774E+11 2.93965E+13-1.19019E-01
 -1        11 2.14248E+11-4.08329E+10 1.30878E+12 1.01157E+10 2.24829E+13 1.75386E+11
 -1        12 1.55622E+12-1.55622E+12-4.42660E-01-1.24440E-01 1.37363E+13-1.37363E+13
 -1        13-2.91833E+12-2.91837E+12-6.80949E+12-9.90182E+05 9.96813E+12-2.06265E+13
 -1        14-3.62396E-05-3.93629E-03-6.18944E-02 1.14265E+06 1.06858E+13-2.06909E-01
 -1        15 8.63628E-02-2.96135E-02-3.94215E-01 5.49697E+10 1.48590E+13 1.75552E-02
 -1        16 4.08329E+10-2.14248E+11-1.30878E+12-1.01157E+10-1.75386E+11-2.24829E+13
 -1        17-3.23921E-01-3.27064E-01-7.01116E-01-1.14265E+06 2.56973E-01-1.06858E+13
 -1        18-1.04543E-01-1.60360E-02-3.76641E-01-1.98881E-01 1.35629E-01 9.30445E-02
 -1        19 9.98917E-02-9.97601E-02-2.54879E-01-5.49697E+10 3.60634E-01-1.48590E+13
 -1        20-6.03027E-02-3.43750E-01-5.50049E-01-7.59774E+11 1.31927E-01-2.93965E+13
 -1        21 1.60767E-01 7.66724E-01-5.88074E-01-1.84252E+11 2.22189E+13 2.22839E-01
 -1        22-4.75249E+11 4.75249E+11 6.67086E-01 6.78241E-02 6.53436E+12-6.53436E+12
 -1        23 1.10559E-01 2.11596E+00 3.76773E-01-5.69231E-01-6.41376E-01 9.31370E-02
 -1        24-1.60181E+00-9.67041E-01 4.13391E-01 1.84252E+11-2.59338E-01-2.22189E+13
 -1        25 2.14844E-01 3.24585E-01-4.22668E-01-3.78356E+11 2.99604E+13-7.08466E-02
 -1        26-5.99725E+11 4.52678E+10-2.28521E+12-6.39628E+10 1.43855E+13-1.30481E+12
 -1        27-7.73460E+11 7.73460E+11 2.88721E-01-5.38078E-01 6.93278E+12-6.93278E+12
 -1        28 1.73882E-01 1.29199E+00-1.94408E-01-1.20289E+11 9.19241E+12 1.56307E-01
 -1        29-4.52678E+10 5.99725E+11 2.28521E+12 6.39628E+10 1.30481E+12-1.43855E+13
 -1        30-2.65783E-01 9.65691E-01-1.39537E-01-5.83821E-01-1.57154E-01 1.43722E-01
 -1        31-5.80551E-01-1.67198E-02 2.10804E-01 1.20289E+11-5.34786E-01-9.19241E+12
 -1        32-6.65405E-01-2.31384E-01 6.96472E-01 3.78356E+11 1.04828E-01-2.99604E+13
 -1        33-5.71228E-01-2.46301E+00-4.40521E-02-2.23401E+11 6.67923E+12 1.58691E-03
 -1        34-5.28397E+11 5.28397E+11 3.74617E-01 6.26077E-01 1.68708E+12-1.68708E+12
 -1        35-5.18490E-01-9.53859E-02-1.39755E-01 5.79779E-01-6.13785E-01 1.48720E-01
 -1        36 1.58081E-02-1.20326E+00-1.77281E+00 2.23401E+11-2.96661E-01-6.67923E+12
 -1        37 4.93042E-01-8.06885E-02 2.06299E-02-1.80780E+11 1.44255E+13-5.23453E-02
 -1        38-8.80221E+11-1.31583E+11-2.23405E+12-1.00570E+11 4.18071E+12-2.20200E+11
 -1        39-4.55748E+11 4.55748E+11 7.33707E-02-1.09883E-01 4.14547E+12-4.14547E+12
 -1        40-1.29738E+00-1.95335E+00-5.44731E-01-1.22831E+11 2.70372E+12-4.54979E-02
 -1        41 1.31583E+11 8.80221E+11 2.23405E+12 1.00570E+11 2.20200E+11-4.18071E+12
 -1        42-2.76074E-01 5.90559E-01-5.49464E-02-2.97327E-01-6.69491E-01 3.08015E-02
 -1        43 5.95093E-04-2.63420E-01-7.09923E-01 1.22831E+11-4.31845E-01-2.70372E+12
 -1        44-3.11523E-01-8.28491E-01-5.00671E-01 1.80780E+11-1.85745E-01-1.44255E+13
 -1        45-1.84842E+00-6.88281E+00-3.22064E+00-2.17494E+11-1.12831E+13 4.46789E-01
 -1        46-5.22142E+11 5.22142E+11 6.80503E-01-2.84471E+00-3.02579E+12 3.02579E+12
 -1        47-9.77598E-01 2.85367E+00-5.30558E-01-9.56176E-02 4.50883E-02-7.47255E-01
 -1        48-1.44714E-01-6.39514E+00-2.26285E+00 2.17494E+11 4.99096E-01 1.12831E+13
 -1        49-9.63318E-01-4.13037E+00-1.41107E+00-2.60417E+11-2.30306E+12 2.26212E-02
 -1        50-7.69127E+11-3.65104E+10-2.23141E+12-9.09742E+10-7.15463E+12 4.76050E+11
 -1        51-6.05230E+11 6.05230E+11 1.64137E-01-1.05291E+00-6.70486E+11 6.70486E+11
 -1        52-1.55752E+00-5.81192E-01-1.44402E+00-1.26520E+11-4.60527E+12-1.07201E-01
 -1        53 3.65104E+10 7.69127E+11 2.23141E+12 9.09742E+10-4.76050E+11 7.15463E+12
 -1        54-1.14431E+00 1.04996E+00-2.56835E-01 1.67832E-01-1.73651E-01-1.85544E-01
 -1        55-3.85437E-01-8.39554E-01-1.00750E+00 1.26520E+11 1.05232E-01 4.60527E+12
 -1        56-8.76099E-01-4.85956E+00-3.61591E+00 2.60417E+11-4.27742E-02 2.30306E+12
 -1        57 4.13704E+00 3.34369E+00 1.56676E+00-1.63219E+11-2.65596E+13-6.21147E-01
 -1        58-3.91327E+11 3.91327E+11 1.06347E-02 1.15457E+00-7.18376E+12 7.18376E+12
 -1        59-9.37156E+00-1.76480E+01-6.37840E+00-1.61777E+00-3.78976E-01-4.77527E-01
 -1        60 3.95758E+00 1.41941E+01 2.62271E+00 1.63219E+11 5.98747E-01 2.65596E+13
 -1        61 3.90540E+00 3.28857E-01 7.77954E-01-2.12121E+11-1.89319E+13 3.01376E-01
 -1        62-6.02963E+11-5.27677E+10-1.66663E+12-7.01320E+10-1.68754E+13 1.15179E+12
 -1        63-5.00282E+11 5.00282E+11-8.32843E-01-1.85240E+00-5.11192E+12 5.11192E+12
 -1        64-3.11143E+00-7.99440E+00-2.74350E+00-9.30870E+10-1.08563E+13-3.85681E-01
 -1        65 5.27677E+10 6.02963E+11 1.66663E+12 7.01320E+10-1.15179E+12 1.68754E+13
 -1        66-4.25213E+00-7.25628E+00-3.34087E+00-5.51287E-01-2.19871E-01-5.04990E-01
 -1        67-2.17279E+00-1.44547E+00-1.75560E+00 9.30870E+10 1.82114E-02 1.08563E+13
 -1        68 1.00500E+00 3.92590E+00 8.13232E-01 2.12121E+11 7.02209E-01 1.89319E+13
 -1        69-5.31142E+00 1.25609E+00-8.47992E-01-7.23555E+10-3.60348E+13-1.73401E-01
 -1        70-1.73191E+11 1.73191E+11 4.89180E+00 5.76084E+00-9.73778E+12 9.73778E+12
 -1        71 4.62789E+00 3.78484E+00 1.89759E+00 7.01638E-01-3.37030E-01 8.85747E-01
 -1        72-1.09321E+01-8.31690E+00-3.13637E+00 7.23555E+10 3.56583E-01 3.60348E+13
 -1        73 1.58325E+00 1.92780E+00 7.62299E-01-1.33226E+11-3.13160E+13-4.34052E-01
 -1        74-2.61955E+11-1.84135E+10-7.38657E+11-3.07341E+10-2.28906E+13 1.55886E+12
 -1        75-3.13148E+11 3.13148E+11-1.37207E+00 6.23899E-01-8.47174E+12 8.47174E+12
 -1        76-1.28839E+00 8.34850E-01-2.72690E-01-4.16214E+10-1.47268E+13 3.18161E-01
 -1        77 1.84135E+10 2.61955E+11 7.38657E+11 3.07341E+10-1.55886E+12 2.28906E+13
 -1        78-5.32539E-01-3.50071E+00-1.10301E+00-7.09230E-01-5.27256E-01 5.99356E-01
 -1        79-3.04128E+00-1.25849E+00-2.73220E-01 4.16214E+10 1.55472E-01 1.47268E+13
 -1        80-2.92133E+00 6.57874E+00 1.28543E+00 1.33226E+11-8.20801E-01 3.13160E+13
 -1        81 3.39868E+00-7.42081E+00 1.22989E+00 3.40214E+10-3.75650E+13-3.29132E-01
 -1        82 8.13206E+10-8.13206E+10 1.55196E+00-1.22288E+00-1.01581E+13 1.01581E+13
 -1        83-4.07047E+00 8.50826E-01-1.92866E-01-1.47404E+00 8.87324E-01-7.41982E-03
 -1        84-1.78635E+00 1.70123E+00 1.13607E+00-3.40214E+10-1.46623E+00 3.75650E+13
 -1        85 5.92022E-01-1.78173E+00 9.69727E-01-2.10917E+10-3.68210E+13-1.30829E-01
 -1        86 1.23948E+11 9.28282E+09 3.44638E+11 1.45519E+10-2.38662E+13 1.62904E+12
 -1        87-4.97862E+10 4.97862E+10 2.88047E+00 2.76804E+00-9.96156E+12 9.96156E+12
 -1        88-8.69006E-01-3.46070E+00 3.27164E-01 1.94696E+10-1.53538E+13-3.00980E-01
 -1        89-9.28282E+09-1.23948E+11-3.44638E+11-1.45519E+10-1.62904E+12 2.38662E+13
 -1        90 1.40745E+00 4.26197E+00 1.99683E+00-1.35638E-01 1.50284E-01-4.43568E-02
 -1        91-2.02018E+00 1.91353E+00 1.07949E+00-1.94696E+10-3.00316E-01 1.53538E+13
 -1        92-5.69890E+00-2.15149E+00-1.71204E+00 2.10917E+10 1.22610E+00 3.68210E+13
 -1        93 5.16838E+00-8.70880E-01 1.82387E+00 1.35626E+11-3.08721E+13-2.83249E-01
 -1        94 3.24446E+11-3.24446E+11-3.35252E+00-5.34868E+00-8.32048E+12 8.32048E+12
 -1        95 3.10848E+00-2.29193E-01 1.67258E+00 1.86123E-01-1.97028E-01-8.36790E-01
 -1        96-1.31524E+01-1.37561E+01-7.99522E+00-1.35626E+11 2.15456E+00 3.08721E+13
 -1        97 5.36276E+00-4.02588E-01 2.56287E+00 9.25205E+10-3.42392E+13 6.55823E-02
 -1        98 4.92762E+11 3.73747E+10 1.38191E+12 5.78870E+10-1.96002E+13 1.32004E+12
 -1        99 2.18285E+11-2.18285E+11 3.33551E-01-1.36545E+00-9.25101E+12 9.25101E+12
 -1       100 1.16371E+00-1.60508E+00 5.04635E-01 7.77392E+10-1.26134E+13-3.91411E-01
 -1       101-3.73747E+10-4.92762E+11-1.38191E+12-5.78870E+10-1.32004E+12 1.96002E+13
 -1       102-1.25938E+00-1.47152E+00-1.69027E-01-2.83862E-01-8.85243E-02-1.87227E-01
 -1       103-5.12849E+00-6.16433E+00-2.88201E+00-7.77392E+10 1.29451E+00 1.26134E+13
 -1       104-7.04578E+00-9.01120E+00-2.36729E+00-9.25205E+10-1.25206E+00 3.42392E+13
 -1       105 1.67729E+01-8.80127E-01 4.42346E+00 2.03079E+11-1.72166E+13 1.04796E+00
 -1       106 4.90204E+11-4.90204E+11 1.06595E+01 4.15889E+00-4.73477E+12 4.73477E+12
 -1       107-1.13858E+01-7.84760E+00-4.79566E+00 6.61161E+00 1.40396E+00 3.14950E-01
 -1       108 5.63263E+00 3.16681E+00-4.03809E-01-2.03079E+11 3.15037E+00 1.72166E+13
 -1       109 1.24994E+01-4.31396E-01 4.34747E+00 1.95163E+11-2.40404E+13-1.88950E-01
 -1       110 6.84154E+11-6.79138E+09 1.95037E+12 8.61684E+10-1.09762E+13 8.11198E+11
 -1       111 4.58962E+11-4.58962E+11 4.63712E+00-1.67720E+00-6.55418E+12 6.55418E+12
 -1       112-4.46352E+00-9.52690E+00-4.12292E+00 1.16910E+11-7.05399E+12 5.80253E-01
 -1       113 6.79138E+09-6.84154E+11-1.95037E+12-8.61684E+10-8.11198E+11 1.09762E+13
 -1       114-4.22775E+00-5.20316E+00-2.60078E+00 3.12951E+00-3.75333E-02 3.22807E-01
 -1       115-2.87567E+00 1.48345E+00-1.81882E+00-1.16910E+11 3.03696E+00 7.05399E+12
 -1       116-8.77808E-01-1.59570E+00-1.50348E+00-1.95163E+11 8.12881E-01 2.40404E+13
 -1       117-4.50476E+00-1.41008E+01-3.67584E+00 3.45158E+11-6.84432E+11-1.89468E+00
 -1       118 7.47486E+11-7.47486E+11-1.03772E+01 1.70419E+00 2.59222E+11-2.59222E+11
 -1       119 1.17487E+01 2.61754E+01 9.05978E+00-6.30850E+00-8.95450E-01-3.58455E-01
 -1       120-1.03706E+01-2.78925E+01-5.66254E+00-3.45158E+11-3.94998E+00 6.84432E+11
 -1       121 1.11080E+01-5.94812E+00 2.33255E+00 2.08027E+11-8.92913E+12-7.77741E-01
 -1       122 8.71560E+11-2.07603E+11 2.03756E+12 1.62138E+11-2.10344E+11-2.63445E+11
 -1       123 4.86683E+11-4.86683E+11 8.01213E-01-1.98193E+00-2.19676E+12 2.19676E+12
 -1       124-2.35214E-01 4.46619E+00 7.41409E-01 1.83020E+11-1.97932E+11-7.38647E-01
 -1       125 2.07603E+11-8.71560E+11-2.03756E+12-1.62138E+11 2.63445E+11 2.10344E+11
 -1       126 6.04685E+00 2.08296E+01 8.33801E+00-7.56370E-01 1.17146E+00-3.05008E-01
 -1       127 7.26318E-03 4.19603E+00 2.17343E+00-1.83020E+11-2.60807E+00 1.97932E+11
 -1       128-5.77393E-02-5.33112E+00-1.91574E+00-2.08027E+11 4.10192E-01 8.92913E+12
 -1       129 1.68237E+07-1.68237E+07-1.79468E+00 3.25775E-02-1.98618E+13-1.98618E+13
 -1       130-3.09517E-01-3.24028E-01-7.79299E-01 2.13283E+06-2.14120E+13-2.41924E-01
 -1       131-2.97897E-01-2.27112E-01-3.00095E-01 6.50854E+10-3.74729E+13 4.20079E-02
 -1       132-2.03452E+11 2.03452E+11 1.08792E+00-1.25786E-01-7.47738E+12-7.47738E+12
 -1       133 2.91833E+12 2.91837E+12 6.80949E+12-9.90182E+05-9.96813E+12-2.06265E+13
 -1       134-2.06390E-01-2.11723E-01-5.33104E-01 1.14265E+06-1.06858E+13-2.25410E-01
 -1       135-8.76541E-02-7.30476E-02-3.43571E-01 5.49697E+10-1.48590E+13 1.31582E-01
 -1       136-4.08329E+10 2.14248E+11 1.30878E+12-1.01157E+10 1.75386E+11-2.24829E+13
 -1       137-2.91837E+12-2.91833E+12-6.80949E+12 9.90182E+05-2.06265E+13-9.96813E+12
 -1       138-2.11792E-01-1.26221E-01-4.89868E-01 7.59774E+11-2.93965E+13-2.86756E-02
 -1       139-2.14248E+11 4.08329E+10-1.30878E+12 1.01157E+10-2.24829E+13 1.75386E+11
 -1       140-1.55622E+12 1.55622E+12-3.02795E-01-1.62281E-01-1.37363E+13-1.37363E+13
 -1       141 1.36505E-01-1.32196E+00-6.93817E-01-1.84252E+11-2.22189E+13 2.05106E-01
 -1       142 4.75249E+11-4.75249E+11 1.44706E+00 3.39802E-01-6.53436E+12-6.53436E+12
 -1       143-2.09873E-01-4.35486E-02-3.78548E-01-1.20289E+11-9.19241E+12 1.44855E-01
 -1       144 4.52678E+10-5.99725E+11-2.28521E+12 6.39628E+10-1.30481E+12-1.43855E+13
 -1       145-4.91028E-01-9.39209E-01-6.44653E-01-3.78356E+11-2.99604E+13 7.63893E-02
 -1       146 5.99725E+11-4.52678E+10 2.28521E+12-6.39628E+10-1.43855E+13-1.30481E+12
 -1       147 7.73460E+11-7.73460E+11 1.62855E+00 1.00391E-01-6.93278E+12-6.93278E+12
 -1       148-6.95816E-01-2.83362E+00-1.48796E+00-2.23401E+11-6.67923E+12 3.19294E-01
 -1       149 5.28397E+11-5.28397E+11-6.16970E-01 3.12119E-01-1.68708E+12-1.68708E+12
 -1       150 1.16180E-01-7.14569E-01-3.18962E-01-1.22831E+11-2.70372E+12 2.82722E-01
 -1       151-1.31583E+11-8.80221E+11-2.23405E+12 1.00570E+11-2.20200E+11-4.18071E+12
 -1       152-3.44299E-01-2.33948E+00-1.04218E+00-1.80780E+11-1.44255E+13 9.49640E-02
 -1       153 8.80221E+11 1.31583E+11 2.23405E+12-1.00570E+11-4.18071E+12-2.20200E+11
 -1       154 4.55748E+11-4.55748E+11 1.50033E+00-3.41442E-01-4.14547E+12-4.14547E+12
 -1       155 1.64398E-01-6.20728E-02 1.08505E+00-2.17494E+11 1.12831E+13-1.31614E-01
 -1       156 5.22142E+11-5.22142E+11-1.74246E+00-2.27083E+00 3.02579E+12 3.02579E+12
 -1       157-6.53839E-02 4.37683E-01 9.05228E-02-1.26520E+11 4.60527E+12-4.93078E-01
 -1       158-3.65104E+10-7.69127E+11-2.23141E+12 9.09742E+10 4.76050E+11 7.15463E+12
 -1       159-1.55121E+00-2.91748E+00-1.69989E+00-2.60417E+11 2.30306E+12 3.28924E-01
 -1       160 7.69127E+11 3.65104E+10 2.23141E+12-9.09742E+10 7.15463E+12 4.76050E+11
 -1       161 6.05230E+11-6.05230E+11-2.73674E-01-1.42985E+00 6.70486E+11 6.70486E+11
 -1       162 5.88606E+00 8.88538E+00 3.94023E+00-1.63219E+11 2.65596E+13-3.87064E-01
 -1       163 3.91327E+11-3.91327E+11-3.81086E+00 4.73653E+00 7.18376E+12 7.18376E+12
 -1       164-6.39389E-01-2.18068E+00-3.25821E-01-9.30870E+10 1.08563E+13-5.33088E-01
 -1       165-5.27677E+10-6.02963E+11-1.66663E+12 7.01320E+10 1.15179E+12 1.68754E+13
 -1       166 2.09521E+00 2.16663E+00 2.00476E+00-2.12121E+11 1.89319E+13-8.26321E-01
 -1       167 6.02963E+11 5.27677E+10 1.66663E+12-7.01320E+10 1.68754E+13 1.15179E+12
 -1       168 5.00282E+11-5.00282E+11-3.18448E+00 2.18892E+00 5.11192E+12 5.11192E+12
 -1       169 3.60216E+00 1.04617E+01 4.44742E+00-7.23555E+10 3.60348E+13 2.72110E-01
 -1       170 1.73191E+11-1.73191E+11-1.02226E+00-6.16020E+00 9.73778E+12 9.73778E+12
 -1       171 2.51376E+00 2.99379E+00 1.43736E+00-4.16214E+10 1.47268E+13 5.93063E-01
 -1       172-1.84135E+10-2.61955E+11-7.38657E+11 3.07341E+10 1.55886E+12 2.28906E+13
 -1       173 1.74792E+00 5.68439E+00 2.59161E+00-1.33226E+11 3.13160E+13 4.86692E-01
 -1       174 2.61955E+11 1.84135E+10 7.38657E+11-3.07341E+10 2.28906E+13 1.55886E+12
 -1       175 3.13148E+11-3.13148E+11-2.81688E+00 1.74963E+00 8.47174E+12 8.47174E+12
 -1       176 1.94572E-01-4.36401E+00-1.47099E+00 3.40214E+10 3.75650E+13-5.40738E-01
 -1       177-8.13206E+10 8.13206E+10 1.70015E+00-9.59376E-01 1.01581E+13 1.01581E+13
 -1       178-3.19345E-01 7.07335E-01 5.97306E-01 1.94696E+10 1.53538E+13-4.68006E-01
 -1       179 9.28282E+09 1.23948E+11 3.44638E+11-1.45519E+10 1.62904E+12 2.38662E+13
 -1       180-6.19297E-01-1.31217E+00-9.90990E-01-2.10917E+10 3.68210E+13-8.09097E-03
 -1       181-1.23948E+11-9.28282E+09-3.44638E+11 1.45519E+10 2.38662E+13 1.62904E+12
 -1       182 4.97862E+10-4.97862E+10 8.34961E-01-2.87658E+00 9.96156E+12 9.96156E+12
 -1       183-9.07704E+00 6.78210E+00-8.24448E-01 1.35626E+11 3.08721E+13 6.25506E-01
 -1       184-3.24446E+11 3.24446E+11 3.20027E+00 1.54942E-01 8.32048E+12 8.32048E+12
 -1       185-2.16845E+00-5.01686E-01-4.94381E-01 7.77392E+10 1.26134E+13-5.51788E-01
 -1       186 3.73747E+10 4.92762E+11 1.38191E+12-5.78870E+10 1.32004E+12 1.96002E+13
 -1       187-4.87383E+00-1.30096E+00-1.75111E+00 9.25205E+10 3.42392E+13 4.59520E-01
 -1       188-4.92762E+11-3.73747E+10-1.38191E+12 5.78870E+10 1.96002E+13 1.32004E+12
 -1       189-2.18285E+11 2.18285E+11 3.21070E+00-9.37263E-01 9.25101E+12 9.25101E+12
 -1       190 6.30695E+00 1.54012E+01 4.13831E+00 2.03079E+11 1.72166E+13 5.67615E-01
 -1       191-4.90204E+11 4.90204E+11-1.65517E+01 5.68403E+00 4.73477E+12 4.73477E+12
 -1       192 4.79445E+00 9.90086E+00 3.57025E+00 1.16910E+11 7.05399E+12 6.55813E-01
 -1       193-6.79138E+09 6.84154E+11 1.95037E+12-8.61684E+10 8.11198E+11 1.09762E+13
 -1       194-1.02274E+00 1.07820E+01 2.51575E+00 1.95163E+11 2.40404E+13 4.17805E-01
 -1       195-6.84154E+11 6.79138E+09-1.95037E+12 8.61684E+10 1.09762E+13 8.11198E+11
 -1       196-4.58962E+11 4.58962E+11-8.88722E+00 5.75216E+00 6.55418E+12 6.55418E+12
 -1       197-8.54309E-01 2.07812E+00 4.21960E+00 3.45158E+11 6.84432E+11-1.71679E+00
 -1       198-7.47486E+11 7.47486E+11 1.16063E+01-4.52076E-01-2.59222E+11-2.59222E+11
 -1       199 7.05243E+00 1.02387E+01 6.15692E+00 1.83020E+11 1.97932E+11-1.03121E+00
 -1       200-2.07603E+11 8.71560E+11 2.03756E+12-1.62138E+11-2.63445E+11 2.10344E+11
 -1       201-8.92395E-01 8.15894E+00 1.79883E+00 2.08027E+11 8.92913E+12 6.81644E-01
 -1       202-8.71560E+11 2.07603E+11-2.03756E+12 1.62138E+11 2.10344E+11-2.63445E+11
 -1       203-4.86683E+11 4.86683E+11 4.44908E-02 4.67723E+00 2.19676E+12 2.19676E+12
 -1       204 1.68237E+07-1.68237E+07 1.30914E+00-4.10538E-02 1.98618E+13 1.98618E+13
 -1       205-2.03452E+11 2.03452E+11-1.27231E+00 1.13148E-01 7.47738E+12 7.47738E+12
 -1       206 2.74361E-01 2.63039E-01 6.65785E-01-2.13283E+06 1.92241E-01 2.14120E+13
 -1       207-2.49908E-01 1.64337E-02-1.13380E+00-6.50854E+10 4.66309E-01 3.74729E+13
 -1       208-2.91837E+12-2.91833E+12-6.80949E+12 9.90182E+05 2.06265E+13 9.96813E+12
 -1       209-1.55622E+12 1.55622E+12-1.09192E-01 3.91502E-02 1.37363E+13 1.37363E+13
 -1       210-2.14248E+11 4.08329E+10-1.30878E+12 1.01157E+10 2.24829E+13-1.75386E+11
 -1       211 2.91833E+12 2.91837E+12 6.80949E+12-9.90182E+05 9.96813E+12 2.06265E+13
 -1       212-4.08329E+10 2.14248E+11 1.30878E+12-1.01157E+10-1.75386E+11 2.24829E+13
 -1       213 1.10115E-01 1.08307E-01 2.88454E-01-1.14265E+06 2.17120E-01 1.06858E+13
 -1       214-5.24902E-02 4.05273E-02-3.22632E-01-7.59774E+11 1.91280E-01 2.93965E+13
 -1       215-2.23118E-01-5.11589E-02-8.80728E-01-5.49697E+10 2.90354E-01 1.48590E+13
 -1       216 4.75249E+11-4.75249E+11-2.81702E+00-1.01322E+00 6.53436E+12 6.53436E+12
 -1       217 3.76587E-01-1.90344E+00-2.04614E+00 1.84252E+11-6.47215E-01 2.22189E+13
 -1       218 7.73460E+11-7.73460E+11-2.26408E+00-5.75794E-01 6.93278E+12 6.93278E+12
 -1       219 5.99725E+11-4.52678E+10 2.28521E+12-6.39628E+10 1.43855E+13 1.30481E+12
 -1       220 4.52678E+10-5.99725E+11-2.28521E+12 6.39628E+10 1.30481E+12 1.43855E+13
 -1       221 4.63867E-02-1.24390E+00-1.80670E+00 3.78356E+11-2.06440E-01 2.99604E+13
 -1       222-6.52771E-02 6.31088E-01-7.56977E-01 1.20289E+11-5.28185E-01 9.19241E+12
 -1       223 5.28397E+11-5.28397E+11 3.48051E+00 2.58867E-01 1.68708E+12 1.68708E+12
 -1       224 1.93146E+00 3.08023E+00 2.18687E+00 2.23401E+11-3.70238E-01 6.67923E+12
 -1       225 4.55748E+11-4.55748E+11 3.96580E-01-2.58781E-01 4.14547E+12 4.14547E+12
 -1       226 8.80221E+11 1.31583E+11 2.23405E+12-1.00570E+11 4.18071E+12 2.20200E+11
 -1       227-1.31583E+11-8.80221E+11-2.23405E+12 1.00570E+11 2.20200E+11 4.18071E+12
 -1       228 4.45190E-01-4.54895E-01-4.69482E-01 1.80780E+11-4.78793E-01 1.44255E+13
 -1       229 8.05237E-01 1.37500E+00 1.06465E+00 1.22831E+11-3.87969E-01 2.70372E+12
 -1       230 5.22142E+11-5.22142E+11 2.54753E+00-2.90297E-01-3.02579E+12-3.02579E+12
 -1       231 2.19208E+00 3.26340E+00 5.18591E+00 2.17494E+11 3.24883E-01-1.12831E+13
 -1       232 6.05230E+11-6.05230E+11 2.76616E+00 5.33817E-01-6.70486E+11-6.70486E+11
 -1       233 7.69127E+11 3.65104E+10 2.23141E+12-9.09742E+10-7.15463E+12-4.76050E+11
 -1       234-3.65104E+10-7.69127E+11-2.23141E+12 9.09742E+10-4.76050E+11-7.15463E+12
 -1       235 1.54028E+00 2.75226E+00 3.48975E+00 2.60417E+11 1.12461E-01-2.30306E+12
 -1       236-1.17889E-01 2.00372E+00 1.70286E+00 1.26520E+11 3.01989E-01-4.60527E+12
 -1       237 3.91327E+11-3.91327E+11-1.34293E+00-5.86445E-01-7.18376E+12-7.18376E+12
 -1       238 5.88690E+00 1.38349E+01 3.52133E+00 1.63219E+11-1.59690E+00-2.65596E+13
 -1       239 5.00282E+11-5.00282E+11-1.80771E-01 2.07747E-01-5.11192E+12-5.11192E+12
 -1       240 6.02963E+11 5.27677E+10 1.66663E+12-7.01320E+10-1.68754E+13-1.15179E+12
 -1       241-5.27677E+10-6.02963E+11-1.66663E+12 7.01320E+10-1.15179E+12-1.68754E+13
 -1       242 2.96509E+00 7.34210E+00 3.64355E+00 2.12121E+11-9.47004E-01-1.89319E+13
 -1       243-1.62907E+00-1.81959E+00-1.41362E+00 9.30870E+10-1.04087E+00-1.08563E+13
 -1       244 1.73191E+11-1.73191E+11 6.21580E+00-3.71111E+00-9.73778E+12-9.73778E+12
 -1       245-6.18855E+00-9.63329E+00-3.69097E+00 7.23555E+10 1.00339E-01-3.60348E+13
 -1       246 3.13148E+11-3.13148E+11 1.98016E+00-1.05705E+00-8.47174E+12-8.47174E+12
 -1       247 2.61955E+11 1.84135E+10 7.38657E+11-3.07341E+10-2.28906E+13-1.55886E+12
 -1       248-1.84135E+10-2.61955E+11-7.38657E+11 3.07341E+10-1.55886E+12-2.28906E+13
 -1       249-8.53271E-02 4.65054E+00 1.41733E+00 1.33226E+11 4.26437E-01-3.13160E+13
 -1       250-2.71659E+00-4.70881E+00-2.00067E+00 4.16214E+10-3.17108E-01-1.47268E+13
 -1       251-8.13206E+10 8.13206E+10 5.58086E+00 4.81310E+00-1.01581E+13-1.01581E+13
 -1       252 7.27715E+00-3.19735E+00 7.09621E-01-3.40214E+10 4.16457E-01-3.75650E+13
 -1       253 4.97862E+10-4.97862E+10 2.62852E+00 1.65120E+00-9.96156E+12-9.96156E+12
 -1       254-1.23948E+11-9.28282E+09-3.44638E+11 1.45519E+10-2.38662E+13-1.62904E+12
 -1       255 9.28282E+09 1.23948E+11 3.44638E+11-1.45519E+10-1.62904E+12-2.38662E+13
 -1       256-1.96579E-01-5.40890E+00-1.88928E+00 2.10917E+10-5.17578E-01-3.68210E+13
 -1       257 1.05448E+00-1.44827E+00 1.21438E-01-1.94696E+10 8.13179E-01-1.53538E+13
 -1       258-3.24446E+11 3.24446E+11 3.87384E+00-2.84930E+00-8.32048E+12-8.32048E+12
 -1       259 3.74124E+00 1.17932E+00 1.77440E+00-1.35626E+11 1.85344E+00-3.08721E+13
 -1       260-2.18285E+11 2.18285E+11 6.62870E+00-1.32899E+00-9.25101E+12-9.25101E+12
 -1       261-4.92762E+11-3.73747E+10-1.38191E+12 5.78870E+10-1.96002E+13-1.32004E+12
 -1       262 3.73747E+10 4.92762E+11 1.38191E+12-5.78870E+10-1.32004E+12-1.96002E+13
 -1       263 6.32428E+00 7.73163E-02 1.23233E+00-9.25205E+10-2.86026E-02-3.42392E+13
 -1       264 5.32610E+00 3.26164E-01 2.30985E+00-7.77392E+10 8.70834E-01-1.26134E+13
 -1       265-4.90204E+11 4.90204E+11-1.23210E+01-1.82940E+00-4.73477E+12-4.73477E+12
 -1       266 1.29438E+01 1.66781E+01 8.42615E+00-2.03079E+11-4.01906E+00-1.72166E+13
 -1       267-4.58962E+11 4.58962E+11-8.09990E+00-2.56951E+00-6.55418E+12-6.55418E+12
 -1       268-6.84154E+11 6.79138E+09-1.95037E+12 8.61684E+10-1.09762E+13-8.11198E+11
 -1       269-6.79138E+09 6.84154E+11 1.95037E+12-8.61684E+10-8.11198E+11-1.09762E+13
 -1       270 1.29211E+00 2.20743E+00 2.02463E+00-1.95163E+11 3.74546E-02-2.40404E+13
 -1       271-2.22478E+00-1.02217E+00-1.43210E+00-1.16910E+11-1.82829E+00-7.05399E+12
 -1       272-7.47486E+11 7.47486E+11 1.42909E+01-2.57248E+00 2.59222E+11 2.59222E+11
 -1       273-2.61841E-01-1.40113E+01-6.86096E-01-3.45158E+11 2.28935E+00-6.84432E+11
 -1       274-4.86683E+11 4.86683E+11-1.73274E+00 2.26397E+00-2.19676E+12-2.19676E+12
 -1       275-8.71560E+11 2.07603E+11-2.03756E+12 1.62138E+11-2.10344E+11 2.63445E+11
 -1       276-2.07603E+11 8.71560E+11 2.03756E+12-1.62138E+11 2.63445E+11-2.10344E+11
 -1       277 1.06107E+01 1.39543E+01 8.33154E+00-2.08027E+11 3.85567E-01-8.92913E+12
 -1       278 3.28778E+00-1.13289E+00-1.69373E-03-1.83020E+11 1.05342E+00-1.97932E+11
 -1       279-1.68237E+07 1.68237E+07 5.24186E-02 1.36249E-02-1.98618E+13 1.98618E+13
 -1       280 2.03452E+11-2.03452E+11-8.11289E-01 4.30075E-01-7.47738E+12 7.47738E+12
 -1       281-2.91833E+12-2.91837E+12-6.80949E+12-9.90182E+05-9.96813E+12 2.06265E+13
 -1       282 4.08329E+10-2.14248E+11-1.30878E+12-1.01157E+10 1.75386E+11 2.24829E+13
 -1       283 2.91837E+12 2.91833E+12 6.80949E+12 9.90182E+05-2.06265E+13 9.96813E+12
 -1       284 1.55622E+12-1.55622E+12-1.65593E-01 8.02860E-02-1.37363E+13 1.37363E+13
 -1       285 2.14248E+11-4.08329E+10 1.30878E+12 1.01157E+10-2.24829E+13-1.75386E+11
 -1       286-4.75249E+11 4.75249E+11-1.72093E+00 1.12454E+00-6.53436E+12 6.53436E+12
 -1       287-4.52678E+10 5.99725E+11 2.28521E+12 6.39628E+10-1.30481E+12 1.43855E+13
 -1       288-7.73460E+11 7.73460E+11-1.24914E+00 6.30182E-01-6.93278E+12 6.93278E+12
 -1       289-5.99725E+11 4.52678E+10-2.28521E+12-6.39628E+10-1.43855E+13 1.30481E+12
 -1       290-5.28397E+11 5.28397E+11 1.70094E+00 1.20112E-01-1.68708E+12 1.68708E+12
 -1       291 1.31583E+11 8.80221E+11 2.23405E+12 1.00570E+11-2.20200E+11 4.18071E+12
 -1       292-4.55748E+11 4.55748E+11-4.04034E-01 3.19030E-01-4.14547E+12 4.14547E+12
 -1       293-8.80221E+11-1.31583E+11-2.23405E+12-1.00570E+11-4.18071E+12 2.20200E+11
 -1       294-5.22142E+11 5.22142E+11 2.96857E+00 8.99192E-01 3.02579E+12-3.02579E+12
 -1       295 3.65104E+10 7.69127E+11 2.23141E+12 9.09742E+10 4.76050E+11-7.15463E+12
 -1       296-6.05230E+11 6.05230E+11 1.97347E+00 1.30859E-01 6.70486E+11-6.70486E+11
 -1       297-7.69127E+11-3.65104E+10-2.23141E+12-9.09742E+10 7.15463E+12-4.76050E+11
 -1       298-3.91327E+11 3.91327E+11-6.39871E-01-4.56748E-02 7.18376E+12-7.18376E+12
 -1       299 5.27677E+10 6.02963E+11 1.66663E+12 7.01320E+10 1.15179E+12-1.68754E+13
 -1       300-5.00282E+11 5.00282E+11 1.09925E-01-2.79731E-01 5.11192E+12-5.11192E+12
 -1       301-6.02963E+11-5.27677E+10-1.66663E+12-7.01320E+10 1.68754E+13-1.15179E+12
 -1       302-1.73191E+11 1.73191E+11-8.36464E-01 7.33325E+00 9.73778E+12-9.73778E+12
 -1       303 1.84135E+10 2.61955E+11 7.38657E+11 3.07341E+10 1.55886E+12-2.28906E+13
 -1       304-3.13148E+11 3.13148E+11-3.21491E+00 9.79613E-01 8.47174E+12-8.47174E+12
 -1       305-2.61955E+11-1.84135E+10-7.38657E+11-3.07341E+10 2.28906E+13-1.55886E+12
 -1       306 8.13206E+10-8.13206E+10-3.94517E+00-3.46062E+00 1.01581E+13-1.01581E+13
 -1       307-9.28282E+09-1.23948E+11-3.44638E+11-1.45519E+10 1.62904E+12-2.38662E+13
 -1       308-4.97862E+10 4.97862E+10-2.66799E+00-1.66775E-01 9.96156E+12-9.96156E+12
 -1       309 1.23948E+11 9.28282E+09 3.44638E+11 1.45519E+10 2.38662E+13-1.62904E+12
 -1       310 3.24446E+11-3.24446E+11 1.14785E+00 1.46918E+01 8.32048E+12-8.32048E+12
 -1       311-3.73747E+10-4.92762E+11-1.38191E+12-5.78870E+10 1.32004E+12-1.96002E+13
 -1       312 2.18285E+11-2.18285E+11-3.07081E+00 3.98201E+00 9.25101E+12-9.25101E+12
 -1       313 4.92762E+11 3.73747E+10 1.38191E+12 5.78870E+10 1.96002E+13-1.32004E+12
 -1       314 4.90204E+11-4.90204E+11-2.21966E+00-3.14079E-01 4.73477E+12-4.73477E+12
 -1       315 6.79138E+09-6.84154E+11-1.95037E+12-8.61684E+10 8.11198E+11-1.09762E+13
 -1       316 4.58962E+11-4.58962E+11-2.28934E+00 8.18329E+00 6.55418E+12-6.55418E+12
 -1       317 6.84154E+11-6.79138E+09 1.95037E+12 8.61684E+10 1.09762E+13-8.11198E+11
 -1       318 7.47486E+11-7.47486E+11-1.38664E+01 1.15899E+01-2.59222E+11 2.59222E+11
 -1       319 2.07603E+11-8.71560E+11-2.03756E+12-1.62138E+11-2.63445E+11-2.10344E+11
 -1       320 4.86683E+11-4.86683E+11-6.07014E+00 3.83813E+00 2.19676E+12-2.19676E+12
 -1       321 8.71560E+11-2.07603E+11 2.03756E+12 1.62138E+11 2.10344E+11 2.63445E+11
 -3
    1PSTEP                        35           1           1          
    1PGM                1.000000E+00                                  
    1PGK                1.974600E+10                                  
    1PHID                         -1                                  
    1PSUBC                         0                                  
    1PMODE                         9                                  
  100CL  109 22364.52687         321                     2    9MODAL      1
 -4  TOSTRAIN    6    1
 -5  EXX         1    4    1    1
 -5  EYY         1    4    2    2
 -5  EZZ         1    4    3    3
 -5  EXY         1    4    1    2
 -5  EYZ         1    4    2    3
 -5  EZX         1    4    3    1
 -1         1-1.04147E-04 1.04147E-04-4.00277E-12-1.13800E-13 1.22954E+02-1.22954E+02
 -1         2-9.09724E-14-2.00317E-13-6.44714E-13 1.32032E-05 1.32550E+02-1.16529E-12
 -1         3 2.96200E-12-9.05165E-13-1.61398E-12 4.02910E-01 2.31975E+02-1.40193E-12
 -1         4 1.25947E+00-1.25947E+00 1.11814E-12-1.75113E-12 4.62886E+01-4.62886E+01
 -1         5-4.07070E-14 5.86926E-14-4.21181E-12-1.32032E-05 1.58806E-12-1.32550E+02
 -1         6 7.21866E-14-2.48807E-14-6.45575E-13 1.53123E-14 1.25472E-12-1.18206E-12
 -1         7 2.59893E-13 1.09372E-12-2.32960E-12-1.65081E-12 1.65012E-12 1.39900E-12
 -1         8 9.99867E-13-2.44657E-12 4.09995E-13-4.02910E-01 2.43627E-12-2.31975E+02
 -1         9 1.39221E-04-1.54780E-04 2.40880E+01 6.12970E-06 1.27688E+02-6.17075E+01
 -1        10 1.29785E-12-5.03597E-13-1.40399E-12 4.70337E+00 1.81979E+02-7.34079E-13
 -1        11-7.91129E-01-2.37020E+00 5.98456E+00 6.26209E-02 1.39180E+02 1.08572E+00
 -1        12 9.63373E+00-9.63373E+00-1.44858E-12-7.70556E-13 8.50340E+01-8.50340E+01
 -1        13 1.54780E-04-1.39221E-04-2.40880E+01-6.12970E-06 6.17075E+01-1.27688E+02
 -1        14 9.37809E-14 6.90992E-14-2.88188E-13 7.07354E-06 6.61503E+01-1.29097E-12
 -1        15 1.01662E-12 2.98317E-13-1.95739E-12 3.40289E-01 9.19844E+01 1.08302E-13
 -1        16 2.37020E+00 7.91129E-01-5.98456E+00-6.26209E-02-1.08572E+00-1.39180E+02
 -1        17-7.39257E-14-9.29552E-14-2.40866E-12-7.07354E-06 1.57874E-12-6.61503E+01
 -1        18 6.30633E-14 6.10241E-13-1.62042E-12-1.23127E-12 8.42966E-13 5.74209E-13
 -1        19 9.82575E-13-2.53596E-13-1.21489E-12-3.40289E-01 2.23149E-12-9.19844E+01
 -1        20 9.92983E-13-7.66293E-13-2.04334E-12-4.70337E+00 8.19345E-13-1.81979E+02
 -1        21 5.10510E-13 4.25948E-12-4.12340E-12-1.14061E+00 1.37546E+02 1.37776E-12
 -1        22-2.94202E+00 2.94202E+00 4.24341E-12 4.19761E-13 4.04508E+01-4.04508E+01
 -1        23-3.03458E-12 9.38000E-12-1.38695E-12-3.52394E-12-3.97385E-12 5.79550E-13
 -1        24-6.83609E-12-2.90749E-12 5.63847E-12 1.14061E+00-1.60330E-12-1.37546E+02
 -1        25 1.16377E-12 1.84208E-12-2.78404E-12-2.34221E+00 1.85469E+02-4.32654E-13
 -1        26 3.44089E-01 4.33690E+00-1.00899E+01-3.95960E-01 8.90534E+01-8.07742E+00
 -1        27-4.78809E+00 4.78809E+00 2.94467E-12-3.33081E-12 4.29172E+01-4.29172E+01
 -1        28-7.40018E-13 6.18106E-12-3.01955E-12-7.44649E-01 5.69054E+01 9.64839E-13
 -1        29-4.33690E+00-3.44089E-01 1.00899E+01 3.95960E-01 8.07742E+00-8.90534E+01
 -1        30-2.44573E-12 5.17758E-12-1.66428E-12-3.61416E-12-9.75423E-13 8.91509E-13
 -1        31-3.04173E-12 4.48662E-13 1.85712E-12 7.44649E-01-3.30826E-12-5.69054E+01
 -1        32-3.83249E-12-1.14620E-12 4.59672E-12 2.34221E+00 6.50258E-13-1.85469E+02
 -1        33 8.61230E-13-1.08502E-11 4.12531E-12-1.38296E+00 4.13476E+01 9.13158E-15
 -1        34-3.27103E+00 3.27103E+00-3.89723E-12 3.87559E-12 1.04438E+01-1.04438E+01
 -1        35-2.13297E-12 4.85864E-13 2.10818E-13 3.58910E-12-3.79802E-12 9.19775E-13
 -1        36 4.32565E-12-3.21980E-12-6.74452E-12 1.38296E+00-1.83736E-12-4.13476E+01
 -1        37 2.43470E-12-1.11822E-12-4.91248E-13-1.11911E+00 8.93005E+01-3.23852E-13
 -1        38-8.12049E-01 3.82238E+00-9.19291E+00-6.22575E-01 2.58806E+01-1.36314E+00
 -1        39-2.82130E+00 2.82130E+00-5.50828E-13-6.80286E-13 2.56624E+01-2.56624E+01
 -1        40-2.60907E-12-6.67000E-12 2.04941E-12-7.60382E-01 1.67373E+01-2.80720E-13
 -1        41-3.82238E+00 8.12049E-01 9.19291E+00 6.22575E-01 1.36314E+00-2.58806E+01
 -1        42-2.07991E-12 3.28487E-12-7.11018E-13-1.84056E-12-4.14204E-12 1.92043E-13
 -1        43 1.39300E-12-2.40902E-13-3.00508E-12 7.60382E-01-2.67135E-12-1.67373E+01
 -1        44 4.16112E-13-2.78571E-12-7.56237E-13 1.11911E+00-1.15061E-12-8.93005E+01
 -1        45 5.63163E-12-2.55340E-11-2.86389E-12-1.34639E+00-6.98480E+01 2.76291E-12
 -1        46-3.23231E+00 3.23231E+00-1.07577E-11-1.76101E-11-1.87311E+01 1.87311E+01
 -1        47-7.97404E-12 1.57433E-11-5.20669E-12-5.91894E-13 2.79375E-13-4.62525E-12
 -1        48 1.16804E-11-2.70136E-11-1.43397E-12 1.34639E+00 3.09008E-12 6.98480E+01
 -1        49 3.32918E-12-1.62763E-11 5.56242E-13-1.61211E+00-1.42570E+01 1.40221E-13
 -1        50-4.22631E-01 4.11262E+00-9.47483E+00-5.63173E-01-4.42906E+01 2.94698E+00
 -1        51-3.74666E+00 3.74666E+00-5.80269E-12-6.51801E-12-4.15063E+00 4.15063E+00
 -1        52-4.52353E-12 1.52051E-12-3.82089E-12-7.83220E-01-2.85088E+01-6.63469E-13
 -1        53-4.11262E+00 4.22631E-01 9.47483E+00 5.63173E-01-2.94698E+00 4.42906E+01
 -1        54-6.58216E-12 7.00160E-12-1.08857E-12 1.03897E-12-1.07711E-12-1.14773E-12
 -1        55 8.02913E-13-2.00805E-12-3.04729E-12 7.83220E-01 6.48259E-13 2.85088E+01
 -1        56 7.93587E-12-1.67241E-11-9.02572E-12 1.61211E+00-2.63733E-13 1.42570E+01
 -1        57 1.26852E-11 7.77423E-12-3.22617E-12-1.01040E+00-1.64417E+02-3.84603E-12
 -1        58-2.42250E+00 2.42250E+00-5.14924E-12 7.14731E-12-4.44709E+01 4.44709E+01
 -1        59-1.03031E-11-6.15382E-11 8.22584E-12-1.00148E-11-2.34148E-12-2.96120E-12
 -1        60-5.17819E-12 5.81908E-11-1.34424E-11 1.01040E+00 3.70937E-12 1.64417E+02
 -1        61 1.70154E-11-5.12390E-12-2.34600E-12-1.31313E+00-1.17197E+02 1.86640E-12
 -1        62-4.14969E-01 2.99100E+00-6.99958E+00-4.34150E-01-1.04467E+02 7.13011E+00
 -1        63-3.09698E+00 3.09698E+00-8.62207E-12-1.14672E-11-3.16452E+01 3.16452E+01
 -1        64 5.23459E-13-2.97043E-11 2.80100E-12-5.76253E-01-6.72059E+01-2.39297E-12
 -1        65-2.99100E+00 4.14969E-01 6.99958E+00 4.34150E-01-7.13011E+00 1.04467E+02
 -1        66-5.10949E-12-2.37067E-11 5.31874E-13-3.41271E-12-1.36480E-12-3.12365E-12
 -1        67-5.77355E-12-1.27119E-12-3.19108E-12 5.76253E-01 1.12244E-13 6.72059E+01
 -1        68-1.98552E-12 1.60974E-11-3.17227E-12 1.31313E+00 4.34530E-12 1.17197E+02
 -1        69-2.58753E-11 1.47803E-11 1.75535E-12-4.47915E-01-2.23073E+02-1.07525E-12
 -1        70-1.07213E+00 1.07213E+00 1.11182E-11 3.56624E-11-6.02815E+01 6.02815E+01
 -1        71 1.39198E-11 8.70082E-12-2.98199E-12 4.34346E-12-2.09209E-12 5.48135E-12
 -1        72-3.56958E-11-1.95062E-11 1.25630E-11 4.47915E-01 2.20657E-12 2.23073E+02
 -1        73 3.69654E-12 5.82911E-12-1.38574E-12-8.24735E-01-1.93861E+02-2.69695E-12
 -1        74-1.65878E-01 1.34176E+00-3.11689E+00-1.90259E-01-1.41704E+02 9.65011E+00
 -1        75-1.93854E+00 1.93854E+00 8.85279E-13 3.86227E-12-5.24441E+01 5.24441E+01
 -1        76-6.93825E-12 6.20562E-12-6.50684E-13-2.57656E-01-9.11660E+01 1.96704E-12
 -1        77-1.34176E+00 1.65878E-01 3.11689E+00 1.90259E-01-9.65011E+00 1.41704E+02
 -1        78 4.04087E-12-1.43335E-11 5.09433E-13-4.39046E-12-3.26218E-12 3.70745E-12
 -1        79-1.22940E-11-1.25778E-12 4.84146E-12 2.57656E-01 9.65616E-13 9.11660E+01
 -1        80-2.51461E-11 3.36645E-11 8.96093E-13 8.24735E-01-5.08082E-12 1.93861E+02
 -1        81 2.50283E-11-4.19495E-11 1.16026E-11 2.10609E-01-2.32545E+02-2.03748E-12
 -1        82 5.03413E-01-5.03413E-01 6.33544E-12-7.57025E-12-6.28832E+01 6.28832E+01
 -1        83-2.03231E-11 1.01420E-11 3.68103E-12-9.12501E-12 5.49928E-12-4.50508E-14
 -1        84-1.25597E-11 9.03015E-12 5.53122E-12-2.10609E-01-9.07718E-12 2.32545E+02
 -1        85 3.97912E-12-1.07155E-11 6.31733E-12-1.30568E-01-2.27939E+02-8.08797E-13
 -1        86 8.46270E-02-6.25204E-01 1.45080E+00 9.00830E-02-1.47743E+02 1.00846E+01
 -1        87-3.08200E-01 3.08200E-01 7.75582E-12 1.71355E-11-6.16668E+01 6.16668E+01
 -1        88 3.38359E-13-1.57055E-11 7.74328E-12 1.20526E-01-9.50473E+01-1.86162E-12
 -1        89 6.25204E-01-8.46270E-02-1.45080E+00-9.00830E-02-1.00846E+01 1.47743E+02
 -1        90-2.23899E-12 1.54318E-11 1.40954E-12-8.39675E-13 9.34971E-13-2.73760E-13
 -1        91-1.38957E-11 1.04559E-11 5.29280E-12-1.20526E-01-1.85890E-12 9.50473E+01
 -1        92-2.16183E-11 3.41872E-13 3.06220E-12 1.30568E-01 7.59315E-12 2.27939E+02
 -1        93 2.32500E-11-1.41359E-11 2.54575E-12 8.39591E-01-1.91113E+02-1.75882E-12
 -1        94 2.00848E+00-2.00848E+00 6.36951E-12-3.31108E-11-5.15077E+01 5.15077E+01
 -1        95 1.27403E-11-7.92148E-12 3.85095E-12 1.15219E-12-1.22296E-12-5.18125E-12
 -1        96-3.15569E-11-3.52943E-11 3.68256E-13-8.39591E-01 1.33381E-11 1.91113E+02
 -1        97 2.24510E-11-1.32393E-11 5.11831E-12 5.72746E-01-2.11957E+02 4.05898E-13
 -1        98 3.18931E-01-2.50013E+00 5.82320E+00 3.58348E-01-1.21335E+02 8.17169E+00
 -1        99 1.35129E+00-1.35129E+00 1.12519E-11-8.45277E-12-5.72681E+01 5.72681E+01
 -1       100 7.11354E-12-1.00266E-11 3.03363E-12 4.81243E-01-7.80830E+01-2.42556E-12
 -1       101 2.50013E+00-3.18931E-01-5.82320E+00-3.58348E-01-8.17169E+00 1.21335E+02
 -1       102-3.65341E-12-4.96668E-12 3.09640E-12-1.75723E-12-5.53467E-13-1.16380E-12
 -1       103-1.14980E-11-1.79106E-11 2.40888E-12-4.81243E-01 8.00907E-12 7.80830E+01
 -1       104-1.72957E-11-2.94634E-11 1.16657E-11-5.72746E-01-7.75180E-12 2.11957E+02
 -1       105 7.48091E-11-3.44704E-11-1.64042E-12 1.25715E+00-1.06579E+02 6.48470E-12
 -1       106 3.03460E+00-3.03460E+00-2.94169E-12 2.57454E-11-2.93105E+01 2.93105E+01
 -1       107-3.61562E-11-1.42533E-11 4.63972E-12 4.09290E-11 8.69050E-12 1.94860E-12
 -1       108 2.28764E-11 7.61036E-12-1.44938E-11-1.25715E+00 1.95042E-11 1.06579E+02
 -1       109 5.39268E-11-2.61218E-11 3.46203E-12 1.20815E+00-1.48822E+02-1.17228E-12
 -1       110 4.81337E-01-3.79594E+00 8.31981E+00 5.33423E-01-6.79481E+01 5.02170E+00
 -1       111 2.84119E+00-2.84119E+00 3.18149E-12-1.03827E-11-4.05735E+01 4.05735E+01
 -1       112-1.75529E-12-3.31003E-11 3.53629E-13 7.23731E-01-4.36675E+01 3.59292E-12
 -1       113 3.79594E+00-4.81337E-01-8.31981E+00-5.33423E-01-5.02170E+00 6.79481E+01
 -1       114-8.98344E-12-1.50219E-11 1.08752E-12 1.93731E-11-2.32855E-13 1.99739E-12
 -1       115-1.32143E-11 1.37707E-11-6.67272E-12-7.23731E-01 1.87984E-11 4.36675E+01
 -1       116 2.45137E-13-4.19640E-12-3.62593E-12-1.20815E+00 5.03148E-12 1.48822E+02
 -1       117 3.94321E-12-5.54579E-11 9.07577E-12 2.13669E+00-4.23696E+00-1.17288E-11
 -1       118 4.62729E+00-4.62729E+00-3.80594E-12 1.05497E-11 1.60470E+00-1.60470E+00
 -1       119 5.60977E-12 9.49185E-11-1.10354E-11-3.90528E-11-5.54065E-12-2.21952E-12
 -1       120-1.44862E-12-1.09916E-10 2.76967E-11-2.13669E+00-2.44489E-11 4.23696E+00
 -1       121 5.80602E-11-4.75247E-11 3.73650E-12 1.28779E+00-5.52756E+01-4.81433E-12
 -1       122 1.53606E+00-5.14448E+00 8.75417E+00 1.00371E+00-1.30213E+00-1.63085E+00
 -1       123 3.01280E+00-3.01280E+00-7.17548E-12-1.22690E-11-1.35990E+01 1.35990E+01
 -1       124-8.55968E-12 2.05442E-11-2.51351E-12 1.13298E+00-1.22529E+00-4.57104E-12
 -1       125 5.14448E+00-1.53606E+00-8.75417E+00-1.00371E+00 1.63085E+00 1.30213E+00
 -1       126-1.28734E-11 7.86388E-11 1.31008E-12-4.68227E-12 7.25288E-12-1.88870E-12
 -1       127-9.06408E-12 1.68658E-11 4.34414E-12-1.13298E+00-1.61454E-11 1.22529E+00
 -1       128 1.00773E-11-2.25665E-11-1.42536E-12-1.28779E+00 2.53778E-12 5.52756E+01
 -1       129 1.04147E-04-1.04147E-04-6.33249E-12 2.01783E-13-1.22954E+02-1.22954E+02
 -1       130 1.04080E-13 1.33227E-14-2.80891E-12 1.32032E-05-1.32550E+02-1.50190E-12
 -1       131-6.65360E-13-2.28151E-13-6.78359E-13 4.02910E-01-2.31975E+02 2.58595E-13
 -1       132-1.25947E+00 1.25947E+00 4.66605E-12-7.78863E-13-4.62886E+01-4.62886E+01
 -1       133-1.54780E-04 1.39221E-04 2.40880E+01-6.12970E-06-6.17075E+01-1.27688E+02
 -1       134 8.16274E-14 4.75731E-14-1.94202E-12 7.07354E-06-6.61503E+01-1.38977E-12
 -1       135 1.77484E-13 2.68022E-13-1.40648E-12 3.40289E-01-9.19844E+01 8.17933E-13
 -1       136-2.37020E+00-7.91129E-01 5.98456E+00-6.26209E-02 1.08572E+00-1.39180E+02
 -1       137-1.39221E-04 1.54780E-04-2.40880E+01 6.12970E-06-1.27688E+02-6.17075E+01
 -1       138-1.28340E-13 4.02345E-13-1.85152E-12 4.70337E+00-1.81979E+02-1.71356E-13
 -1       139 7.91129E-01 2.37020E+00-5.98456E+00 6.26209E-02-1.39180E+02 1.08572E+00
 -1       140-9.63373E+00 9.63373E+00-1.61238E-12-1.00467E-12-8.50340E+01-8.50340E+01
 -1       141 3.52965E-12-5.49938E-12-1.60948E-12-1.14061E+00-1.37546E+02 1.26706E-12
 -1       142 2.94202E+00-2.94202E+00 5.03997E-12 2.10366E-12-4.04508E+01-4.04508E+01
 -1       143-3.96289E-13 6.33216E-13-1.44055E-12-7.44649E-01-5.69054E+01 8.96944E-13
 -1       144 4.33690E+00 3.44089E-01-1.00899E+01 3.95960E-01-8.07742E+00-8.90534E+01
 -1       145-7.63209E-14-2.84928E-12-1.02683E-12-2.34221E+00-1.85469E+02 4.71609E-13
 -1       146-3.44089E-01-4.33690E+00 1.00899E+01-3.95960E-01-8.90534E+01-8.07742E+00
 -1       147 4.78809E+00-4.78809E+00 4.85678E-12 6.21669E-13-4.29172E+01-4.29172E+01
 -1       148 2.86031E-12-1.03737E-11-2.04346E-12-1.38296E+00-4.13476E+01 1.97548E-12
 -1       149 3.27103E+00-3.27103E+00-1.10157E-11 1.93225E-12-1.04438E+01-1.04438E+01
 -1       150 2.02971E-12-3.11295E-12-6.63784E-13-7.60382E-01-1.67373E+01 1.74870E-12
 -1       151 3.82238E+00-8.12049E-01-9.19291E+00 6.22575E-01-1.36314E+00-2.58806E+01
 -1       152 3.19109E-12-9.15978E-12-1.12878E-12-1.11911E+00-8.93005E+01 5.87468E-13
 -1       153 8.12049E-01-3.82238E+00 9.19291E+00-6.22575E-01-2.58806E+01-1.36314E+00
 -1       154 2.82130E+00-2.82130E+00-1.36841E-12-2.11381E-12-2.56624E+01-2.56624E+01
 -1       155-6.78244E-13-2.08034E-12 5.02073E-12-1.34639E+00 6.98480E+01-8.13271E-13
 -1       156 3.23231E+00-3.23231E+00-7.52520E-12-1.40576E-11 1.87311E+01 1.87311E+01
 -1       157-1.06600E-12 2.04819E-12-1.00916E-13-7.83220E-01 2.85088E+01-3.05230E-12
 -1       158 4.11262E+00-4.22631E-01-9.47483E+00 5.63173E-01 2.94698E+00 4.42906E+01
 -1       159-7.90338E-13-9.25038E-12-1.70987E-12-1.61211E+00 1.42570E+01 2.03552E-12
 -1       160 4.22631E-01-4.11262E+00 9.47483E+00-5.63173E-01 4.42906E+01 2.94698E+00
 -1       161 3.74666E+00-3.74666E+00-7.95009E-12-8.85157E-12 4.15063E+00 4.15063E+00
 -1       162 9.70643E-12 2.82738E-11-2.33909E-12-1.01040E+00 1.64417E+02-2.39549E-12
 -1       163 2.42250E+00-2.42250E+00 6.60347E-12 2.93214E-11 4.44709E+01 4.44709E+01
 -1       164 5.35910E-13-9.00474E-12 2.47689E-12-5.76253E-01 6.72059E+01-3.30571E-12
 -1       165 2.99100E+00-4.14969E-01-6.99958E+00 4.34150E-01 7.13011E+00 1.04467E+02
 -1       166 4.01838E-12 4.45910E-12 3.45825E-12-1.31313E+00 1.17197E+02-5.11277E-12
 -1       167 4.14969E-01-2.99100E+00 6.99958E+00-4.34150E-01 1.04467E+02 7.13011E+00
 -1       168 3.09698E+00-3.09698E+00-2.25608E-12 1.35504E-11 3.16452E+01 3.16452E+01
 -1       169-4.14546E-12 3.83182E-11 1.08669E-12-4.47915E-01 2.23073E+02 1.67806E-12
 -1       170 1.07213E+00-1.07213E+00-5.37937E-12-3.81346E-11 6.02815E+01 6.02815E+01
 -1       171 5.64006E-12 8.61168E-12-1.02319E-12-2.57656E-01 9.11660E+01 3.66843E-12
 -1       172 1.34176E+00-1.65878E-01-3.11689E+00 1.90259E-01 9.65011E+00 1.41704E+02
 -1       173-3.49925E-12 2.08698E-11 1.72315E-12-8.24735E-01 1.93861E+02 3.01027E-12
 -1       174 1.65878E-01-1.34176E+00 3.11689E+00-1.90259E-01 1.41704E+02 9.65011E+00
 -1       175 1.93854E+00-1.93854E+00 4.00432E-12 1.08310E-11 5.24441E+01 5.24441E+01
 -1       176 9.26229E-12-1.89576E-11-1.04849E-12 2.10609E-01 2.32545E+02-3.34997E-12
 -1       177-5.03413E-01 5.03413E-01 1.20019E-11-5.93897E-12 6.28832E+01 6.28832E+01
 -1       178-3.38450E-12 2.97123E-12 2.29011E-12 1.20526E-01 9.50473E+01-2.90008E-12
 -1       179-6.25204E-01 8.46270E-02 1.45080E+00-9.00830E-02 1.00846E+01 1.47743E+02
 -1       180 3.41181E-13-3.94793E-12-1.95980E-12-1.30568E-01 2.27939E+02-5.30687E-14
 -1       181-8.46270E-02 6.25204E-01-1.45080E+00 9.00830E-02 1.47743E+02 1.00846E+01
 -1       182 3.08200E-01-3.08200E-01 4.35783E-13-1.78074E-11 6.16668E+01 6.16668E+01
 -1       183-5.17350E-11 4.64403E-11-6.47383E-13 8.39591E-01 1.91113E+02 3.87102E-12
 -1       184-2.00848E+00 2.00848E+00-4.93203E-13 9.59170E-13 5.15077E+01 5.15077E+01
 -1       185-8.90300E-12 1.41487E-12 1.46025E-12 4.81243E-01 7.80830E+01-3.41784E-12
 -1       186-2.50013E+00 3.18931E-01 5.82320E+00-3.58348E-01 8.17169E+00 1.21335E+02
 -1       187-1.88487E-11 3.26927E-12 4.82612E-13 5.72746E-01 2.11957E+02 2.84249E-12
 -1       188-3.18931E-01 2.50013E+00-5.82320E+00 3.58348E-01 1.21335E+02 8.17169E+00
 -1       189-1.35129E+00 1.35129E+00 3.18931E-12-5.80208E-12 5.72681E+01 5.72681E+01
 -1       190 2.11920E-12 5.84182E-11-1.13053E-11 1.25715E+00 1.06579E+02 3.51372E-12
 -1       191-3.03460E+00 3.03460E+00-2.94950E-12 3.51869E-11 2.93105E+01 2.93105E+01
 -1       192 3.58611E-12 3.51976E-11-3.99204E-12 7.23731E-01 4.36675E+01 4.06108E-12
 -1       193-3.79594E+00 4.81337E-01 8.31981E+00-5.33423E-01 5.02170E+00 6.79481E+01
 -1       194-2.38667E-11 4.92091E-11-1.96233E-12 1.20815E+00 1.48822E+02 2.58844E-12
 -1       195-4.81337E-01 3.79594E+00-8.31981E+00 5.33423E-01 6.79481E+01 5.02170E+00
 -1       196-2.84119E+00 2.84119E+00-1.64341E-12 3.56087E-11 4.05735E+01 4.05735E+01
 -1       197-1.30645E-11 5.08882E-12 1.83443E-11 2.13669E+00 4.23696E+00-1.06299E-11
 -1       198-4.62729E+00 4.62729E+00-1.04200E-12-2.79837E-12-1.60470E+00-1.60470E+00
 -1       199 1.01606E-11 2.98852E-11 4.61681E-12 1.13298E+00 1.22529E+00-6.38311E-12
 -1       200-5.14448E+00 1.53606E+00 8.75417E+00-1.00371E+00-1.63085E+00 1.30213E+00
 -1       201-1.84749E-11 3.75562E-11-1.81493E-12 1.28779E+00 5.52756E+01 4.21898E-12
 -1       202-1.53606E+00 5.14448E+00-8.75417E+00 1.00371E+00 1.30213E+00-1.63085E+00
 -1       203-3.01280E+00 3.01280E+00-4.35818E-13 2.89542E-11 1.35990E+01 1.35990E+01
 -1       204 1.04147E-04-1.04147E-04 4.64451E-12-2.54075E-13 1.22954E+02 1.22954E+02
 -1       205-1.25947E+00 1.25947E+00-6.69448E-12 7.00481E-13 4.62886E+01 4.62886E+01
 -1       206-1.90403E-14-9.06289E-14 2.39726E-12-1.32032E-05 1.19523E-12 1.32550E+02
 -1       207 4.08229E-13 2.05347E-12-5.06099E-12-4.02910E-01 2.88053E-12 2.31975E+02
 -1       208-1.39221E-04 1.54780E-04-2.40880E+01 6.12970E-06 1.27688E+02 6.17075E+01
 -1       209-9.63373E+00 9.63373E+00-8.09575E-13 2.42362E-13 8.50340E+01 8.50340E+01
 -1       210 7.91129E-01 2.37020E+00-5.98456E+00 6.26209E-02 1.39180E+02-1.08572E+00
 -1       211-1.54780E-04 1.39221E-04 2.40880E+01-6.12970E-06 6.17075E+01 1.27688E+02
 -1       212-2.37020E+00-7.91129E-01 5.98456E+00-6.26209E-02-1.08572E+00 1.39180E+02
 -1       213-4.20775E-14-5.23704E-14 1.05959E-12-7.07354E-06 1.33555E-12 6.61503E+01
 -1       214 1.53655E-13 7.28657E-13-1.52157E-12-4.70337E+00 1.18499E-12 1.81979E+02
 -1       215 2.68813E-13 1.33357E-12-3.80141E-12-3.40289E-01 1.79494E-12 9.19844E+01
 -1       216 2.94202E+00-2.94202E+00-1.10691E-11-6.27239E-12 4.04508E+01 4.04508E+01
 -1       217 7.43738E-12-6.67977E-12-7.56183E-12 1.14061E+00-4.00535E-12 1.37546E+02
 -1       218 4.78809E+00-4.78809E+00-8.63964E-12-3.56445E-12 4.29172E+01 4.29172E+01
 -1       219-3.44089E-01-4.33690E+00 1.00899E+01-3.95960E-01 8.90534E+01 8.07742E+00
 -1       220 4.33690E+00 3.44089E-01-1.00899E+01 3.95960E-01 8.07742E+00 8.90534E+01
 -1       221 4.57812E-12-3.40738E-12-6.89436E-12 2.34221E+00-1.27838E-12 1.85469E+02
 -1       222-1.30951E-13 4.18022E-12-4.41296E-12 7.44649E-01-3.27010E-12 5.69054E+01
 -1       223 3.27103E+00-3.27103E+00 8.83077E-12 1.60243E-12 1.04438E+01 1.04438E+01
 -1       224 1.67066E-12 8.78438E-12 3.25440E-12 1.38296E+00-2.29305E-12 4.13476E+01
 -1       225 2.82130E+00-2.82130E+00-6.51368E-13-1.60201E-12 2.56624E+01 2.56624E+01
 -1       226 8.12049E-01-3.82238E+00 9.19291E+00-6.22575E-01 2.58806E+01 1.36314E+00
 -1       227 3.82238E+00-8.12049E-01-9.19291E+00 6.22575E-01 1.36314E+00 2.58806E+01
 -1       228 3.44125E-12-2.13205E-12-2.22141E-12 1.11911E+00-2.96523E-12 8.93005E+01
 -1       229 3.48777E-13 3.87619E-12 1.95557E-12 7.60382E-01-2.40352E-12 1.67373E+01
 -1       230 3.23231E+00-3.23231E+00 9.31411E-12-1.79701E-12-1.87311E+01-1.87311E+01
 -1       231-1.63158E-12 4.99951E-12 1.69020E-11 1.34639E+00 2.00986E-12-6.98480E+01
 -1       232 3.74666E+00-3.74666E+00 9.03905E-12 3.30462E-12-4.15063E+00-4.15063E+00
 -1       233 4.22631E-01-4.11262E+00 9.47483E+00-5.63173E-01-4.42906E+01-2.94698E+00
 -1       234 4.11262E+00-4.22631E-01-9.47483E+00 5.63173E-01-2.94698E+00-4.42906E+01
 -1       235-1.58140E-12 5.92087E-12 1.04834E-11 1.61211E+00 6.95694E-13-1.42570E+01
 -1       236-5.85609E-12 7.27723E-12 5.41501E-12 7.83220E-01 1.86998E-12-2.85088E+01
 -1       237 2.42250E+00-2.42250E+00-3.71309E-12-3.63036E-12-4.44709E+01-4.44709E+01
 -1       238 3.23808E-12 5.24404E-11-1.14058E-11 1.01040E+00-9.88553E-12-1.64417E+02
 -1       239 3.09698E+00-3.09698E+00 5.44786E-13 1.28605E-12-3.16452E+01-3.16452E+01
 -1       240 4.14969E-01-2.99100E+00 6.99958E+00-4.34150E-01-1.04467E+02-7.13011E+00
 -1       241 2.99100E+00-4.14969E-01-6.99958E+00 4.34150E-01-7.13011E+00-1.04467E+02
 -1       242-1.57385E-12 2.55205E-11 2.62669E-12 1.31313E+00-5.86606E-12-1.17197E+02
 -1       243-3.13866E-12-4.31794E-12-1.80479E-12 5.76253E-01-6.44678E-12-6.72059E+01
 -1       244 1.07213E+00-1.07213E+00 3.60643E-12-2.29735E-11-6.02815E+01-6.02815E+01
 -1       245-1.04348E-11-3.17591E-11 5.02668E-12 4.47915E-01 6.20837E-13-2.23073E+02
 -1       246 1.93854E+00-1.93854E+00-8.56842E-13-6.54371E-12-5.24441E+01-5.24441E+01
 -1       247 1.65878E-01-1.34176E+00 3.11689E+00-1.90259E-01-1.41704E+02-9.65011E+00
 -1       248 1.34176E+00-1.65878E-01-3.11689E+00 1.90259E-01-9.65011E+00-1.41704E+02
 -1       249-9.07452E-12 2.02422E-11 2.27955E-13 8.24735E-01 2.63999E-12-1.93861E+02
 -1       250-3.35108E-12-1.56841E-11 1.08069E-12 2.57656E-01-1.96300E-12-9.11660E+01
 -1       251-5.03413E-01 5.03413E-01 1.72053E-12 2.97954E-11-6.28832E+01-6.28832E+01
 -1       252 3.82071E-11-2.66350E-11-2.44951E-12-2.10609E-01 2.57472E-12-2.32545E+02
 -1       253 3.08200E-01-3.08200E-01 1.74514E-12 1.02217E-11-6.16668E+01-6.16668E+01
 -1       254-8.46270E-02 6.25204E-01-1.45080E+00 9.00830E-02-1.47743E+02-1.00846E+01
 -1       255-6.25204E-01 8.46270E-02 1.45080E+00-9.00830E-02-1.00846E+01-1.47743E+02
 -1       256 9.48980E-12-2.27769E-11-9.88810E-13 1.30568E-01-3.19909E-12-2.27939E+02
 -1       257 6.91679E-12-8.57635E-12 1.14076E-12-1.20526E-01 5.03907E-12-9.50473E+01
 -1       258-2.00848E+00 2.00848E+00 1.22409E-11-1.76385E-11-5.15077E+01-5.15077E+01
 -1       259 1.35957E-11-2.26305E-12 1.42013E-12-8.39591E-01 1.14647E-11-1.91113E+02
 -1       260-1.35129E+00 1.35129E+00 5.03558E-12-8.22704E-12-5.72681E+01-5.72681E+01
 -1       261-3.18931E-01 2.50013E+00-5.82320E+00 3.58348E-01-1.21335E+02-8.17169E+00
 -1       262-2.50013E+00 3.18931E-01 5.82320E+00-3.58348E-01-8.17169E+00-1.21335E+02
 -1       263 2.82441E-11-1.04266E-11-3.27652E-12-5.72746E-01-1.81535E-13-2.11957E+02
 -1       264 2.15966E-11-9.35537E-12 2.92487E-12-4.81243E-01 5.38875E-12-7.80830E+01
 -1       265-3.03460E+00 3.03460E+00-5.73003E-12-1.13248E-11-2.93105E+01-2.93105E+01
 -1       266 2.57725E-11 4.88911E-11-2.19221E-12-1.25715E+00-2.48779E-11-1.06579E+02
 -1       267-2.84119E+00 2.84119E+00 5.47173E-13-1.59064E-11-4.05735E+01-4.05735E+01
 -1       268-4.81337E-01 3.79594E+00-8.31981E+00 5.33423E-01-6.79481E+01-5.02170E+00
 -1       269-3.79594E+00 4.81337E-01 8.31981E+00-5.33423E-01-5.02170E+00-6.79481E+01
 -1       270 1.05693E-13 5.77301E-12 4.64310E-12-1.20815E+00 2.27249E-13-1.48822E+02
 -1       271-7.08816E-12 3.56631E-13-2.18128E-12-7.23731E-01-1.13161E-11-4.36675E+01
 -1       272-4.62729E+00 4.62729E+00-7.65987E-12-1.59250E-11 1.60470E+00 1.60470E+00
 -1       273 1.97500E-11-6.53665E-11 1.71236E-11-2.13669E+00 1.41723E-11-4.23696E+00
 -1       274-3.01280E+00 3.01280E+00 1.08996E-12 1.40150E-11-1.35990E+01-1.35990E+01
 -1       275-1.53606E+00 5.14448E+00-8.75417E+00 1.00371E+00-1.30213E+00 1.63085E+00
 -1       276-5.14448E+00 1.53606E+00 8.75417E+00-1.00371E+00 1.63085E+00-1.30213E+00
 -1       277 1.86904E-11 3.93889E-11 4.58179E-12-1.28779E+00 2.38681E-12-5.52756E+01
 -1       278 1.72762E-11-1.00888E-11-3.08619E-12-1.13298E+00 6.52024E-12-1.22529E+00
 -1       279-1.04147E-04 1.04147E-04 1.21280E-13 8.44348E-14-1.22954E+02 1.22954E+02
 -1       280 1.25947E+00-1.25947E+00-5.02294E-12 2.66235E-12-4.62886E+01 4.62886E+01
 -1       281 1.54780E-04-1.39221E-04-2.40880E+01-6.12970E-06-6.17075E+01 1.27688E+02
 -1       282 2.37020E+00 7.91129E-01-5.98456E+00-6.26209E-02 1.08572E+00 1.39180E+02
 -1       283 1.39221E-04-1.54780E-04 2.40880E+01 6.12970E-06-1.27688E+02 6.17075E+01
 -1       284 9.63373E+00-9.63373E+00-1.90461E-12 4.97105E-13-8.50340E+01 8.50340E+01
 -1       285-7.91129E-01-2.37020E+00 5.98456E+00 6.26209E-02-1.39180E+02-1.08572E+00
 -1       286-2.94202E+00 2.94202E+00-8.24687E-12 6.96143E-12-4.04508E+01 4.04508E+01
 -1       287-4.33690E+00-3.44089E-01 1.00899E+01 3.95960E-01-8.07742E+00 8.90534E+01
 -1       288-4.78809E+00 4.78809E+00-6.60187E-12 3.90118E-12-4.29172E+01 4.29172E+01
 -1       289 3.44089E-01 4.33690E+00-1.00899E+01-3.95960E-01-8.90534E+01 8.07742E+00
 -1       290-3.27103E+00 3.27103E+00 7.15528E-12 7.43497E-13-1.04438E+01 1.04438E+01
 -1       291-3.82238E+00 8.12049E-01 9.19291E+00 6.22575E-01-1.36314E+00 2.58806E+01
 -1       292-2.82130E+00 2.82130E+00-8.65559E-13 1.97490E-12-2.56624E+01 2.56624E+01
 -1       293-8.12049E-01 3.82238E+00-9.19291E+00-6.22575E-01-2.58806E+01 1.36314E+00
 -1       294-3.23231E+00 3.23231E+00 9.18843E-12 5.56640E-12 1.87311E+01-1.87311E+01
 -1       295-4.11262E+00 4.22631E-01 9.47483E+00 5.63173E-01 2.94698E+00-4.42906E+01
 -1       296-3.74666E+00 3.74666E+00 6.88726E-12 8.09947E-13 4.15063E+00-4.15063E+00
 -1       297-4.22631E-01 4.11262E+00-9.47483E+00-5.63173E-01 4.42906E+01-2.94698E+00
 -1       298-2.42250E+00 2.42250E+00 6.69414E-13-2.82702E-13 4.44709E+01-4.44709E+01
 -1       299-2.99100E+00 4.14969E-01 6.99958E+00 4.34150E-01 7.13011E+00-1.04467E+02
 -1       300-3.09698E+00 3.09698E+00 6.17197E-12-1.73160E-12 3.16452E+01-3.16452E+01
 -1       301-4.14969E-01 2.99100E+00-6.99958E+00-4.34150E-01 1.04467E+02-7.13011E+00
 -1       302-1.07213E+00 1.07213E+00 1.51225E-12 4.53963E-11 6.02815E+01-6.02815E+01
 -1       303-1.34176E+00 1.65878E-01 3.11689E+00 1.90259E-01 9.65011E+00-1.41704E+02
 -1       304-1.93854E+00 1.93854E+00-1.58501E-12 6.06426E-12 5.24441E+01-5.24441E+01
 -1       305-1.65878E-01 1.34176E+00-3.11689E+00-1.90259E-01 1.41704E+02-9.65011E+00
 -1       306 5.03413E-01-5.03413E-01-1.02098E-11-2.14229E-11 6.28832E+01-6.28832E+01
 -1       307 6.25204E-01-8.46270E-02-1.45080E+00-9.00830E-02 1.00846E+01-1.47743E+02
 -1       308-3.08200E-01 3.08200E-01-1.13032E-12-1.03245E-12 6.16668E+01-6.16668E+01
 -1       309 8.46270E-02-6.25204E-01 1.45080E+00 9.00830E-02 1.47743E+02-1.00846E+01
 -1       310 2.00848E+00-2.00848E+00 2.46299E-12 9.09491E-11 5.15077E+01-5.15077E+01
 -1       311 2.50013E+00-3.18931E-01-5.82320E+00-3.58348E-01 8.17169E+00-1.21335E+02
 -1       312 1.35129E+00-1.35129E+00-6.40907E-12 2.46505E-11 5.72681E+01-5.72681E+01
 -1       313 3.18931E-01-2.50013E+00 5.82320E+00 3.58348E-01 1.21335E+02-8.17169E+00
 -1       314 3.03460E+00-3.03460E+00 1.09491E-11-1.94415E-12 2.93105E+01-2.93105E+01
 -1       315 3.79594E+00-4.81337E-01-8.31981E+00-5.33423E-01 5.02170E+00-6.79481E+01
 -1       316 2.84119E+00-2.84119E+00 2.79997E-12 5.06585E-11 4.05735E+01-4.05735E+01
 -1       317 4.81337E-01-3.79594E+00 8.31981E+00 5.33423E-01 6.79481E+01-5.02170E+00
 -1       318 4.62729E+00-4.62729E+00-1.95556E-11 7.17474E-11-1.60470E+00 1.60470E+00
 -1       319 5.14448E+00-1.53606E+00-8.75417E+00-1.00371E+00-1.63085E+00-1.30213E+00
 -1       320 3.01280E+00-3.01280E+00 1.40089E-12 2.37597E-11 1.35990E+01-1.35990E+01
 -1       321 1.53606E+00-5.14448E+00 8.75417E+00 1.00371E+00 1.30213E+00 1.63085E+00
 -3
    1PSTEP                        36           1           1          
    1PGM                1.000000E+00                                  
    1PGK                1.974600E+10                                  
    1PHID                         -1                                  
    1PSUBC                         0                                  
    1PMODE                         9                                  
  100CL  109 22364.52687         321                     2    9MODAL      1
 -4  ERROR       1    1
 -5  STR(%)      1    1    0    0
 -1         1 1.86891E+01
 -1         2 1.86891E+01
 -1         3 1.96199E+01
 -1         4 1.96199E+01
 -1         5 1.86891E+01
 -1         6 1.86891E+01
 -1         7 1.96199E+01
 -1         8 1.96199E+01
 -1         9 1.86891E+01
 -1        10 1.91545E+01
 -1        11 1.96199E+01
 -1        12 1.91545E+01
 -1        13 1.86891E+01
 -1        14 1.86891E+01
 -1        15 1.96199E+01
 -1        16 1.96199E+01
 -1        17 1.86891E+01
 -1        18 1.91545E+01
 -1        19 1.96199E+01
 -1        20 1.91545E+01
 -1        21 2.05358E+01
 -1        22 2.05358E+01
 -1        23 2.05358E+01
 -1        24 2.05358E+01
 -1        25 2.00778E+01
 -1        26 2.05358E+01
 -1        27 2.00778E+01
 -1        28 2.05358E+01
 -1        29 2.05358E+01
 -1        30 2.00778E+01
 -1        31 2.05358E+01
 -1        32 2.00778E+01
 -1        33 2.10531E+01
 -1        34 2.10531E+01
 -1        35 2.10531E+01
 -1        36 2.10531E+01
 -1        37 2.07945E+01
 -1        38 2.10531E+01
 -1        39 2.07945E+01
 -1        40 2.10531E+01
 -1        41 2.10531E+01
 -1        42 2.07945E+01
 -1        43 2.10531E+01
 -1        44 2.07945E+01
 -1        45 2.10531E+01
 -1        46 2.10531E+01
 -1        47 2.10531E+01
 -1        48 2.10531E+01
 -1        49 2.10531E+01
 -1        50 2.10531E+01
 -1        51 2.10531E+01
 -1        52 2.10531E+01
 -1        53 2.10531E+01
 -1        54 2.10531E+01
 -1        55 2.10531E+01
 -1        56 2.10531E+01
 -1        57 2.01161E+01
 -1        58 2.01161E+01
 -1        59 2.01161E+01
 -1        60 2.01161E+01
 -1        61 2.05846E+01
 -1        62 2.01161E+01
 -1        63 2.05846E+01
 -1        64 2.01161E+01
 -1        65 2.01161E+01
 -1        66 2.05846E+01
 -1        67 2.01161E+01
 -1        68 2.05846E+01
 -1        69 1.92200E+01
 -1        70 1.92200E+01
 -1        71 1.92200E+01
 -1        72 1.92200E+01
 -1        73 1.96680E+01
 -1        74 1.92200E+01
 -1        75 1.96680E+01
 -1        76 1.92200E+01
 -1        77 1.92200E+01
 -1        78 1.96680E+01
 -1        79 1.92200E+01
 -1        80 1.96680E+01
 -1        81 1.89954E+01
 -1        82 1.89954E+01
 -1        83 1.89954E+01
 -1        84 1.89954E+01
 -1        85 1.91077E+01
 -1        86 1.89954E+01
 -1        87 1.91077E+01
 -1        88 1.89954E+01
 -1        89 1.89954E+01
 -1        90 1.91077E+01
 -1        91 1.89954E+01
 -1        92 1.91077E+01
 -1        93 1.97136E+01
 -1        94 1.97136E+01
 -1        95 1.97136E+01
 -1        96 1.97136E+01
 -1        97 1.93545E+01
 -1        98 1.97136E+01
 -1        99 1.93545E+01
 -1       100 1.97136E+01
 -1       101 1.97136E+01
 -1       102 1.93545E+01
 -1       103 1.97136E+01
 -1       104 1.93545E+01
 -1       105 2.14408E+01
 -1       106 2.14408E+01
 -1       107 2.14408E+01
 -1       108 2.14408E+01
 -1       109 2.05772E+01
 -1       110 2.14408E+01
 -1       111 2.05772E+01
 -1       112 2.14408E+01
 -1       113 2.14408E+01
 -1       114 2.05772E+01
 -1       115 2.14408E+01
 -1       116 2.05772E+01
 -1       117 2.14408E+01
 -1       118 2.14408E+01
 -1       119 2.14408E+01
 -1       120 2.14408E+01
 -1       121 2.14408E+01
 -1       122 2.14408E+01
 -1       123 2.14408E+01
 -1       124 2.14408E+01
 -1       125 2.14408E+01
 -1       126 2.14408E+01
 -1       127 2.14408E+01
 -1       128 2.14408E+01
 -1       129 1.86891E+01
 -1       130 1.86891E+01
 -1       131 1.96199E+01
 -1       132 1.96199E+01
 -1       133 1.86891E+01
 -1       134 1.86891E+01
 -1       135 1.96199E+01
 -1       136 1.96199E+01
 -1       137 1.86891E+01
 -1       138 1.91545E+01
 -1       139 1.96199E+01
 -1       140 1.91545E+01
 -1       141 2.05358E+01
 -1       142 2.05358E+01
 -1       143 2.05358E+01
 -1       144 2.05358E+01
 -1       145 2.00778E+01
 -1       146 2.05358E+01
 -1       147 2.00778E+01
 -1       148 2.10531E+01
 -1       149 2.10531E+01
 -1       150 2.10531E+01
 -1       151 2.10531E+01
 -1       152 2.07945E+01
 -1       153 2.10531E+01
 -1       154 2.07945E+01
 -1       155 2.10531E+01
 -1       156 2.10531E+01
 -1       157 2.10531E+01
 -1       158 2.10531E+01
 -1       159 2.10531E+01
 -1       160 2.10531E+01
 -1       161 2.10531E+01
 -1       162 2.01161E+01
 -1       163 2.01161E+01
 -1       164 2.01161E+01
 -1       165 2.01161E+01
 -1       166 2.05846E+01
 -1       167 2.01161E+01
 -1       168 2.05846E+01
 -1       169 1.92200E+01
 -1       170 1.92200E+01
 -1       171 1.92200E+01
 -1       172 1.92200E+01
 -1       173 1.96680E+01
 -1       174 1.92200E+01
 -1       175 1.96680E+01
 -1       176 1.89954E+01
 -1       177 1.89954E+01
 -1       178 1.89954E+01
 -1       179 1.89954E+01
 -1       180 1.91077E+01
 -1       181 1.89954E+01
 -1       182 1.91077E+01
 -1       183 1.97136E+01
 -1       184 1.97136E+01
 -1       185 1.97136E+01
 -1       186 1.97136E+01
 -1       187 1.93545E+01
 -1       188 1.97136E+01
 -1       189 1.93545E+01
 -1       190 2.14408E+01
 -1       191 2.14408E+01
 -1       192 2.14408E+01
 -1       193 2.14408E+01
 -1       194 2.05772E+01
 -1       195 2.14408E+01
 -1       196 2.05772E+01
 -1       197 2.14408E+01
 -1       198 2.14408E+01
 -1       199 2.14408E+01
 -1       200 2.14408E+01
 -1       201 2.14408E+01
 -1       202 2.14408E+01
 -1       203 2.14408E+01
 -1       204 1.86891E+01
 -1       205 1.96199E+01
 -1       206 1.86891E+01
 -1       207 1.96199E+01
 -1       208 1.86891E+01
 -1       209 1.91545E+01
 -1       210 1.96199E+01
 -1       211 1.86891E+01
 -1       212 1.96199E+01
 -1       213 1.86891E+01
 -1       214 1.91545E+01
 -1       215 1.96199E+01
 -1       216 2.05358E+01
 -1       217 2.05358E+01
 -1       218 2.00778E+01
 -1       219 2.05358E+01
 -1       220 2.05358E+01
 -1       221 2.00778E+01
 -1       222 2.05358E+01
 -1       223 2.10531E+01
 -1       224 2.10531E+01
 -1       225 2.07945E+01
 -1       226 2.10531E+01
 -1       227 2.10531E+01
 -1       228 2.07945E+01
 -1       229 2.10531E+01
 -1       230 2.10531E+01
 -1       231 2.10531E+01
 -1       232 2.10531E+01
 -1       233 2.10531E+01
 -1       234 2.10531E+01
 -1       235 2.10531E+01
 -1       236 2.10531E+01
 -1       237 2.01161E+01
 -1       238 2.01161E+01
 -1       239 2.05846E+01
 -1       240 2.01161E+01
 -1       241 2.01161E+01
 -1       242 2.05846E+01
 -1       243 2.01161E+01
 -1       244 1.92200E+01
 -1       245 1.92200E+01
 -1       246 1.96680E+01
 -1       247 1.92200E+01
 -1       248 1.92200E+01
 -1       249 1.96680E+01
 -1       250 1.92200E+01
 -1       251 1.89954E+01
 -1       252 1.89954E+01
 -1       253 1.91077E+01
 -1       254 1.89954E+01
 -1       255 1.89954E+01
 -1       256 1.91077E+01
 -1       257 1.89954E+01
 -1       258 1.97136E+01
 -1       259 1.97136E+01
 -1       260 1.93545E+01
 -1       261 1.97136E+01
 -1       262 1.97136E+01
 -1       263 1.93545E+01
 -1       264 1.97136E+01
 -1       265 2.14408E+01
 -1       266 2.14408E+01
 -1       267 2.05772E+01
 -1       268 2.14408E+01
 -1       269 2.14408E+01
 -1       270 2.05772E+01
 -1       271 2.14408E+01
 -1       272 2.14408E+01
 -1       273 2.14408E+01
 -1       274 2.14408E+01
 -1       275 2.14408E+01
 -1       276 2.14408E+01
 -1       277 2.14408E+01
 -1       278 2.14408E+01
 -1       279 1.86891E+01
 -1       280 1.96199E+01
 -1       281 1.86891E+01
 -1       282 1.96199E+01
 -1       283 1.86891E+01
 -1       284 1.91545E+01
 -1       285 1.96199E+01
 -1       286 2.05358E+01
 -1       287 2.05358E+01
 -1       288 2.00778E+01
 -1       289 2.05358E+01
 -1       290 2.10531E+01
 -1       291 2.10531E+01
 -1       292 2.07945E+01
 -1       293 2.10531E+01
 -1       294 2.10531E+01
 -1       295 2.10531E+01
 -1       296 2.10531E+01
 -1       297 2.10531E+01
 -1       298 2.01161E+01
 -1       299 2.01161E+01
 -1       300 2.05846E+01
 -1       301 2.01161E+01
 -1       302 1.92200E+01
 -1       303 1.92200E+01
 -1       304 1.96680E+01
 -1       305 1.92200E+01
 -1       306 1.89954E+01
 -1       307 1.89954E+01
 -1       308 1.91077E+01
 -1       309 1.89954E+01
 -1       310 1.97136E+01
 -1       311 1.97136E+01
 -1       312 1.93545E+01
 -1       313 1.97136E+01
 -1       314 2.14408E+01
 -1       315 2.14408E+01
 -1       316 2.05772E+01
 -1       317 2.14408E+01
 -1       318 2.14408E+01
 -1       319 2.14408E+01
 -1       320 2.14408E+01
 -1       321 2.14408E+01
 -3
    1PSTEP                        37           1           1          
    1PGM                1.000000E+00                                  
    1PGK                2.305001E+10                                  
    1PHID                         -1                                  
    1PSUBC                         0                                  
    1PMODE                        10                                  
  100CL  110 24163.27076         321                     2   10MODAL      1
 -4  DISP        4    1
 -5  D1          1    2    1    0
 -5  D2          1    2    2    0
 -5  D3          1    2    3    0
 -5  ALL         1    2    0    0    1ALL
 -1         1 0.00000E+00 0.00000E+00 0.00000E+00
 -1         2 0.00000E+00 0.00000E+00 0.00000E+00
 -1         3 2.21472E+00-2.21882E+00-9.46417E-01
 -1         4 2.26704E+00-2.22440E+00-1.76213E-02
 -1         5 0.00000E+00 0.00000E+00 0.00000E+00
 -1         6 0.00000E+00 0.00000E+00 0.00000E+00
 -1         7 2.24688E+00-2.20306E+00 1.88738E-14
 -1         8 2.26297E+00-2.17151E+00 9.27956E-01
 -1         9 0.00000E+00 0.00000E+00 0.00000E+00
 -1        10 9.74706E-01-8.35001E-01-6.82457E-01
 -1        11 2.24648E+00-2.21666E+00-5.99260E-01
 -1        12 7.75820E-01-7.55192E-01-1.32013E-02
 -1        13 0.00000E+00 0.00000E+00 0.00000E+00
 -1        14 0.00000E+00 0.00000E+00 0.00000E+00
 -1        15 2.22386E+00-2.21498E+00-3.87255E-01
 -1        16 2.25992E+00-2.20348E+00 5.73984E-01
 -1        17 0.00000E+00 0.00000E+00 0.00000E+00
 -1        18 9.03007E-01-8.85392E-01 6.88338E-15
 -1        19 2.25905E+00-2.18049E+00 3.79701E-01
 -1        20 8.51613E-01-9.55693E-01 6.69145E-01
 -1        21 3.68984E+00-3.82591E+00 9.28897E-02
 -1        22 4.02150E+00-3.95173E+00 1.90306E-03
 -1        23 3.79878E+00-3.72468E+00 4.13003E-14
 -1        24 3.90202E+00-3.61786E+00-9.10777E-02
 -1        25 3.30099E+00-3.36460E+00-5.72815E-01
 -1        26 3.81665E+00-3.92201E+00 3.71250E-02
 -1        27 3.53356E+00-3.47068E+00-1.07587E-02
 -1        28 3.78012E+00-3.74481E+00 5.31752E-02
 -1        29 3.99563E+00-3.74637E+00-3.41785E-02
 -1        30 3.36007E+00-3.29452E+00 2.94209E-14
 -1        31 3.81931E+00-3.70639E+00-5.21379E-02
 -1        32 3.43153E+00-3.23660E+00 5.61642E-01
 -1        33 1.88401E+00-1.95871E+00 1.40076E+00
 -1        34 2.06099E+00-2.02543E+00 2.69017E-02
 -1        35 1.94220E+00-1.90431E+00 5.27356E-14
 -1        36 1.99768E+00-1.84726E+00-1.37344E+00
 -1        37 3.19329E+00-3.30845E+00 8.28325E-01
 -1        38 1.95539E+00-2.00736E+00 7.81932E-01
 -1        39 3.48698E+00-3.42658E+00 1.59354E-02
 -1        40 1.92921E+00-1.91686E+00 6.54800E-01
 -1        41 2.04493E+00-1.91952E+00-7.42211E-01
 -1        42 3.28168E+00-3.21767E+00 5.16254E-14
 -1        43 1.95500E+00-1.89158E+00-6.42027E-01
 -1        44 3.37427E+00-3.13100E+00-8.12168E-01
 -1        45-1.67034E+00 1.76151E+00 1.36525E+00
 -1        46-1.86564E+00 1.83436E+00 2.61906E-02
 -1        47-1.73465E+00 1.70081E+00 5.99520E-14
 -1        48-1.79656E+00 1.63776E+00-1.33862E+00
 -1        49 1.00541E-01-9.27308E-02 1.58067E+00
 -1        50-1.74874E+00 1.81520E+00 7.66993E-01
 -1        51 9.26015E-02-9.05897E-02 3.02818E-02
 -1        52-1.72064E+00 1.71466E+00 6.34990E-01
 -1        53-1.84871E+00 1.71713E+00-7.28363E-01
 -1        54 9.74138E-02-9.55136E-02 5.44009E-14
 -1        55-1.74878E+00 1.68708E+00-6.22604E-01
 -1        56 9.45756E-02-9.85800E-02-1.54984E+00
 -1        57-3.34262E+00 3.51122E+00-6.15895E-02
 -1        58-3.71278E+00 3.65003E+00-1.16437E-03
 -1        59-3.46427E+00 3.39669E+00 4.92939E-14
 -1        60-3.58107E+00 3.27741E+00 6.03881E-02
 -1        61-2.93646E+00 3.07479E+00 7.44473E-01
 -1        62-3.49020E+00 3.61394E+00-3.71295E-02
 -1        63-3.25656E+00 3.20136E+00 1.42643E-02
 -1        64-3.43860E+00 3.42237E+00-2.69281E-02
 -1        65-3.68091E+00 3.42685E+00 3.54357E-02
 -1        66-3.03359E+00 2.97441E+00 7.28306E-14
 -1        67-3.49045E+00 3.37153E+00 2.64028E-02
 -1        68-3.13596E+00 2.87918E+00-7.29951E-01
 -1        69-1.43373E+00 1.49916E+00-1.37454E+00
 -1        70-1.58213E+00 1.55515E+00-2.63221E-02
 -1        71-1.48239E+00 1.45347E+00 3.75255E-14
 -1        72-1.52898E+00 1.40576E+00 1.34773E+00
 -1        73-2.78587E+00 2.91108E+00-8.35643E-01
 -1        74-1.49280E+00 1.54052E+00-7.78912E-01
 -1        75-3.08041E+00 3.02798E+00-1.59727E-02
 -1        76-1.47220E+00 1.46366E+00-6.34605E-01
 -1        77-1.56920E+00 1.46557E+00 7.40156E-01
 -1        78-2.87499E+00 2.81891E+00 2.99760E-14
 -1        79-1.49278E+00 1.44348E+00 6.22226E-01
 -1        80-2.96900E+00 2.73153E+00 8.19343E-01
 -1        81 1.92059E+00-2.03739E+00-1.14548E+00
 -1        82 2.16334E+00-2.12749E+00-2.19035E-02
 -1        83 2.00063E+00-1.96161E+00 1.51407E-14
 -1        84 2.07792E+00-1.88312E+00 1.12314E+00
 -1        85 3.08435E-01-3.34649E-01-1.46737E+00
 -1        86 2.01788E+00-2.10404E+00-6.53992E-01
 -1        87 3.59785E-01-3.54103E-01-2.80452E-02
 -1        88 1.98330E+00-1.97888E+00-5.25527E-01
 -1        89 2.14267E+00-1.98162E+00 6.21787E-01
 -1        90 3.24554E-01-3.18223E-01 3.05311E-14
 -1        91 2.01825E+00-1.94461E+00 5.15276E-01
 -1        92 3.41306E-01-3.02419E-01 1.43875E+00
 -1        93 2.95295E+00-3.15344E+00 4.65561E-01
 -1        94 3.35725E+00-3.30232E+00 9.05249E-03
 -1        95 3.08673E+00-3.02652E+00-1.99840E-14
 -1        96 3.21617E+00-2.89535E+00-4.56479E-01
 -1        97 2.91243E+00-3.07839E+00-4.25740E-01
 -1        98 3.11524E+00-3.26385E+00 2.44680E-01
 -1        99 3.27385E+00-3.21939E+00-8.06464E-03
 -1       100 3.05755E+00-3.05561E+00 2.28250E-01
 -1       101 3.32340E+00-3.05966E+00-2.31168E-01
 -1       102 3.02328E+00-2.96431E+00-6.27276E-15
 -1       103 3.11640E+00-2.99791E+00-2.23798E-01
 -1       104 3.13964E+00-2.85562E+00 4.17436E-01
 -1       105 1.44144E-01-2.82029E-01 1.95770E+00
 -1       106 3.55228E-01-3.53792E-01 3.78325E-02
 -1       107 2.15437E-01-2.11234E-01-3.53051E-14
 -1       108 2.87640E-01-1.41332E-01-1.91951E+00
 -1       109 1.97110E+00-2.14302E+00 1.31393E+00
 -1       110 2.32116E-01-3.35371E-01 1.05545E+00
 -1       111 2.30522E+00-2.26896E+00 2.53419E-02
 -1       112 1.97398E-01-2.29094E-01 9.40568E-01
 -1       113 3.39237E-01-2.30344E-01-9.99230E-01
 -1       114 2.07644E+00-2.03594E+00-3.87468E-14
 -1       115 2.33652E-01-1.93547E-01-9.22221E-01
 -1       116 2.18565E+00-1.93265E+00-1.28830E+00
 -1       117-4.54726E+00 4.43688E+00 2.32596E+00
 -1       118-4.54229E+00 4.45377E+00 4.50548E-02
 -1       119-4.53710E+00 4.44860E+00-4.99600E-14
 -1       120-4.52515E+00 4.45856E+00-2.28059E+00
 -1       121-2.15999E+00 2.05672E+00 2.25283E+00
 -1       122-4.54292E+00 4.44651E+00 1.20437E+00
 -1       123-2.07544E+00 2.03276E+00 4.36116E-02
 -1       124-4.54552E+00 4.44152E+00 1.15309E+00
 -1       125-4.53499E+00 4.45434E+00-1.13680E+00
 -1       126-2.12864E+00 2.08712E+00-6.52811E-14
 -1       127-4.52989E+00 4.45685E+00-1.13060E+00
 -1       128-2.09764E+00 2.11785E+00-2.20889E+00
 -1       129 0.00000E+00 0.00000E+00 0.00000E+00
 -1       130 0.00000E+00 0.00000E+00 0.00000E+00
 -1       131 2.21472E+00-2.21882E+00 9.46417E-01
 -1       132 2.18644E+00-2.14221E+00 1.78911E+00
 -1       133 0.00000E+00 0.00000E+00 0.00000E+00
 -1       134 0.00000E+00 0.00000E+00 0.00000E+00
 -1       135 2.22386E+00-2.21498E+00 3.87255E-01
 -1       136 2.21806E+00-2.16087E+00 1.27739E+00
 -1       137 0.00000E+00 0.00000E+00 0.00000E+00
 -1       138 9.74706E-01-8.35001E-01 6.82457E-01
 -1       139 2.20470E+00-2.17397E+00 1.28894E+00
 -1       140 1.05473E+00-1.03965E+00 1.34034E+00
 -1       141 3.68984E+00-3.82591E+00-9.28897E-02
 -1       142 3.58086E+00-3.50233E+00-1.93219E-01
 -1       143 3.78012E+00-3.74481E+00-5.31752E-02
 -1       144 3.77618E+00-3.53046E+00-1.49226E-01
 -1       145 3.30099E+00-3.36460E+00 5.72815E-01
 -1       146 3.60495E+00-3.69820E+00-1.49929E-01
 -1       147 3.22685E+00-3.15786E+00 1.09234E+00
 -1       148 1.88401E+00-1.95871E+00-1.40076E+00
 -1       149 1.82541E+00-1.78516E+00-2.73135E+00
 -1       150 1.92921E+00-1.91686E+00-6.54800E-01
 -1       151 1.92733E+00-1.80172E+00-2.00893E+00
 -1       152 3.19329E+00-3.30845E+00-8.28325E-01
 -1       153 1.83988E+00-1.88742E+00-2.02395E+00
 -1       154 3.10011E+00-3.03201E+00-1.61794E+00
 -1       155-1.67034E+00 1.76151E+00-1.36525E+00
 -1       156-1.60636E+00 1.56992E+00-2.65915E+00
 -1       157-1.72064E+00 1.71466E+00-6.34990E-01
 -1       158-1.71926E+00 1.58755E+00-1.95367E+00
 -1       159 1.00541E-01-9.27308E-02-1.58067E+00
 -1       160-1.62169E+00 1.68317E+00-1.96840E+00
 -1       161 1.03031E-01-1.01227E-01-3.07453E+00
 -1       162-3.34262E+00 3.51122E+00 6.15895E-02
 -1       163-3.22139E+00 3.14888E+00 1.18220E-01
 -1       164-3.43860E+00 3.42237E+00 2.69281E-02
 -1       165-3.43565E+00 3.18202E+00 8.56306E-02
 -1       166-2.93646E+00 3.07479E+00-7.44473E-01
 -1       167-3.25015E+00 3.36380E+00 8.63453E-02
 -1       168-2.83401E+00 2.77040E+00-1.44827E+00
 -1       169-1.43373E+00 1.49916E+00 1.37454E+00
 -1       170-1.38505E+00 1.35415E+00 2.67250E+00
 -1       171-1.47220E+00 1.46366E+00 6.34605E-01
 -1       172-1.47086E+00 1.36750E+00 1.96002E+00
 -1       173-2.78587E+00 2.91108E+00 8.35643E-01
 -1       174-1.39663E+00 1.44023E+00 1.97498E+00
 -1       175-2.69167E+00 2.63151E+00 1.62172E+00
 -1       176 1.92059E+00-2.03739E+00 1.14548E+00
 -1       177 1.84125E+00-1.79899E+00 2.22388E+00
 -1       178 1.98330E+00-1.97888E+00 5.25527E-01
 -1       179 1.98185E+00-1.82069E+00 1.62858E+00
 -1       180 3.08435E-01-3.34649E-01 1.46737E+00
 -1       181 1.86008E+00-1.94002E+00 1.64115E+00
 -1       182 2.91935E-01-2.84904E-01 2.84745E+00
 -1       183 2.95295E+00-3.15344E+00-4.65561E-01
 -1       184 2.82103E+00-2.75544E+00-9.19106E-01
 -1       185 3.05755E+00-3.05561E+00-2.28250E-01
 -1       186 3.05556E+00-2.79148E+00-6.83622E-01
 -1       187 2.91243E+00-3.07839E+00 4.25740E-01
 -1       188 2.85230E+00-2.99069E+00-6.88309E-01
 -1       189 2.79668E+00-2.73273E+00 8.18809E-01
 -1       190 1.44144E-01-2.82029E-01-1.95770E+00
 -1       191 7.63844E-02-6.94011E-02-3.84116E+00
 -1       192 1.97398E-01-2.29094E-01-9.40568E-01
 -1       193 1.99601E-01-8.76650E-02-2.84415E+00
 -1       194 1.97110E+00-2.14302E+00-1.31393E+00
 -1       195 9.22199E-02-1.92956E-01-2.86439E+00
 -1       196 1.86353E+00-1.81848E+00-2.57299E+00
 -1       197-4.54726E+00 4.43688E+00-2.32596E+00
 -1       198-4.53819E+00 4.44959E+00-4.57445E+00
 -1       199-4.54552E+00 4.44152E+00-1.15309E+00
 -1       200-4.53580E+00 4.45248E+00-3.41872E+00
 -1       201-2.15999E+00 2.05672E+00-2.25283E+00
 -1       202-4.54110E+00 4.44734E+00-3.44178E+00
 -1       203-2.18694E+00 2.14648E+00-4.42791E+00
 -1       204 0.00000E+00 0.00000E+00 0.00000E+00
 -1       205 2.18644E+00-2.14221E+00-1.78911E+00
 -1       206 0.00000E+00 0.00000E+00 0.00000E+00
 -1       207 2.26297E+00-2.17151E+00-9.27956E-01
 -1       208 0.00000E+00 0.00000E+00 0.00000E+00
 -1       209 1.05473E+00-1.03965E+00-1.34034E+00
 -1       210 2.20470E+00-2.17397E+00-1.28894E+00
 -1       211 0.00000E+00 0.00000E+00 0.00000E+00
 -1       212 2.21806E+00-2.16087E+00-1.27739E+00
 -1       213 0.00000E+00 0.00000E+00 0.00000E+00
 -1       214 8.51613E-01-9.55693E-01-6.69145E-01
 -1       215 2.25905E+00-2.18049E+00-3.79701E-01
 -1       216 3.58086E+00-3.50233E+00 1.93219E-01
 -1       217 3.90202E+00-3.61786E+00 9.10777E-02
 -1       218 3.22685E+00-3.15786E+00-1.09234E+00
 -1       219 3.60495E+00-3.69820E+00 1.49929E-01
 -1       220 3.77618E+00-3.53046E+00 1.49226E-01
 -1       221 3.43153E+00-3.23660E+00-5.61642E-01
 -1       222 3.81931E+00-3.70639E+00 5.21379E-02
 -1       223 1.82541E+00-1.78516E+00 2.73135E+00
 -1       224 1.99768E+00-1.84726E+00 1.37344E+00
 -1       225 3.10011E+00-3.03201E+00 1.61794E+00
 -1       226 1.83988E+00-1.88742E+00 2.02395E+00
 -1       227 1.92733E+00-1.80172E+00 2.00893E+00
 -1       228 3.37427E+00-3.13100E+00 8.12168E-01
 -1       229 1.95500E+00-1.89158E+00 6.42027E-01
 -1       230-1.60636E+00 1.56992E+00 2.65915E+00
 -1       231-1.79656E+00 1.63776E+00 1.33862E+00
 -1       232 1.03031E-01-1.01227E-01 3.07453E+00
 -1       233-1.62169E+00 1.68317E+00 1.96840E+00
 -1       234-1.71926E+00 1.58755E+00 1.95367E+00
 -1       235 9.45756E-02-9.85800E-02 1.54984E+00
 -1       236-1.74878E+00 1.68708E+00 6.22604E-01
 -1       237-3.22139E+00 3.14888E+00-1.18220E-01
 -1       238-3.58107E+00 3.27741E+00-6.03881E-02
 -1       239-2.83401E+00 2.77040E+00 1.44827E+00
 -1       240-3.25015E+00 3.36380E+00-8.63453E-02
 -1       241-3.43565E+00 3.18202E+00-8.56306E-02
 -1       242-3.13596E+00 2.87918E+00 7.29951E-01
 -1       243-3.49045E+00 3.37153E+00-2.64028E-02
 -1       244-1.38505E+00 1.35415E+00-2.67250E+00
 -1       245-1.52898E+00 1.40576E+00-1.34773E+00
 -1       246-2.69167E+00 2.63151E+00-1.62172E+00
 -1       247-1.39663E+00 1.44023E+00-1.97498E+00
 -1       248-1.47086E+00 1.36750E+00-1.96002E+00
 -1       249-2.96900E+00 2.73153E+00-8.19343E-01
 -1       250-1.49278E+00 1.44348E+00-6.22226E-01
 -1       251 1.84125E+00-1.79899E+00-2.22388E+00
 -1       252 2.07792E+00-1.88312E+00-1.12314E+00
 -1       253 2.91935E-01-2.84904E-01-2.84745E+00
 -1       254 1.86008E+00-1.94002E+00-1.64115E+00
 -1       255 1.98185E+00-1.82069E+00-1.62858E+00
 -1       256 3.41306E-01-3.02419E-01-1.43875E+00
 -1       257 2.01825E+00-1.94461E+00-5.15276E-01
 -1       258 2.82103E+00-2.75544E+00 9.19106E-01
 -1       259 3.21617E+00-2.89535E+00 4.56479E-01
 -1       260 2.79668E+00-2.73273E+00-8.18809E-01
 -1       261 2.85230E+00-2.99069E+00 6.88309E-01
 -1       262 3.05556E+00-2.79148E+00 6.83622E-01
 -1       263 3.13964E+00-2.85562E+00-4.17436E-01
 -1       264 3.11640E+00-2.99791E+00 2.23798E-01
 -1       265 7.63844E-02-6.94011E-02 3.84116E+00
 -1       266 2.87640E-01-1.41332E-01 1.91951E+00
 -1       267 1.86353E+00-1.81848E+00 2.57299E+00
 -1       268 9.22199E-02-1.92956E-01 2.86439E+00
 -1       269 1.99601E-01-8.76650E-02 2.84415E+00
 -1       270 2.18565E+00-1.93265E+00 1.28830E+00
 -1       271 2.33652E-01-1.93547E-01 9.22221E-01
 -1       272-4.53819E+00 4.44959E+00 4.57445E+00
 -1       273-4.52515E+00 4.45856E+00 2.28059E+00
 -1       274-2.18694E+00 2.14648E+00 4.42791E+00
 -1       275-4.54110E+00 4.44734E+00 3.44178E+00
 -1       276-4.53580E+00 4.45248E+00 3.41872E+00
 -1       277-2.09764E+00 2.11785E+00 2.20889E+00
 -1       278-4.52989E+00 4.45685E+00 1.13060E+00
 -1       279 0.00000E+00 0.00000E+00 0.00000E+00
 -1       280 2.26704E+00-2.22440E+00 1.76213E-02
 -1       281 0.00000E+00 0.00000E+00 0.00000E+00
 -1       282 2.25992E+00-2.20348E+00-5.73984E-01
 -1       283 0.00000E+00 0.00000E+00 0.00000E+00
 -1       284 7.75820E-01-7.55192E-01 1.32013E-02
 -1       285 2.24648E+00-2.21666E+00 5.99260E-01
 -1       286 4.02150E+00-3.95173E+00-1.90306E-03
 -1       287 3.99563E+00-3.74637E+00 3.41785E-02
 -1       288 3.53356E+00-3.47068E+00 1.07587E-02
 -1       289 3.81665E+00-3.92201E+00-3.71250E-02
 -1       290 2.06099E+00-2.02543E+00-2.69017E-02
 -1       291 2.04493E+00-1.91952E+00 7.42211E-01
 -1       292 3.48698E+00-3.42658E+00-1.59354E-02
 -1       293 1.95539E+00-2.00736E+00-7.81932E-01
 -1       294-1.86564E+00 1.83436E+00-2.61906E-02
 -1       295-1.84871E+00 1.71713E+00 7.28363E-01
 -1       296 9.26015E-02-9.05897E-02-3.02818E-02
 -1       297-1.74874E+00 1.81520E+00-7.66993E-01
 -1       298-3.71278E+00 3.65003E+00 1.16437E-03
 -1       299-3.68091E+00 3.42685E+00-3.54357E-02
 -1       300-3.25656E+00 3.20136E+00-1.42643E-02
 -1       301-3.49020E+00 3.61394E+00 3.71295E-02
 -1       302-1.58213E+00 1.55515E+00 2.63221E-02
 -1       303-1.56920E+00 1.46557E+00-7.40156E-01
 -1       304-3.08041E+00 3.02798E+00 1.59727E-02
 -1       305-1.49280E+00 1.54052E+00 7.78912E-01
 -1       306 2.16334E+00-2.12749E+00 2.19035E-02
 -1       307 2.14267E+00-1.98162E+00-6.21787E-01
 -1       308 3.59785E-01-3.54103E-01 2.80452E-02
 -1       309 2.01788E+00-2.10404E+00 6.53992E-01
 -1       310 3.35725E+00-3.30232E+00-9.05249E-03
 -1       311 3.32340E+00-3.05966E+00 2.31168E-01
 -1       312 3.27385E+00-3.21939E+00 8.06464E-03
 -1       313 3.11524E+00-3.26385E+00-2.44680E-01
 -1       314 3.55228E-01-3.53792E-01-3.78325E-02
 -1       315 3.39237E-01-2.30344E-01 9.99230E-01
 -1       316 2.30522E+00-2.26896E+00-2.53419E-02
 -1       317 2.32116E-01-3.35371E-01-1.05545E+00
 -1       318-4.54229E+00 4.45377E+00-4.50548E-02
 -1       319-4.53499E+00 4.45434E+00 1.13680E+00
 -1       320-2.07544E+00 2.03276E+00-4.36116E-02
 -1       321-4.54292E+00 4.44651E+00-1.20437E+00
 -3
    1PSTEP                        38           1           1          
    1PGM                1.000000E+00                                  
    1PGK                2.305001E+10                                  
    1PHID                         -1                                  
    1PSUBC                         0                                  
    1PMODE                        10                                  
  100CL  110 24163.27076         321                     2   10MODAL      1
 -4  STRESS      6    1
 -5  SXX         1    4    1    1
 -5  SYY         1    4    2    2
 -5  SZZ         1    4    3    3
 -5  SXY         1    4    1    2
 -5  SYZ         1    4    2    3
 -5  SZX         1    4    3    1
 -1         1-4.26271E+11-4.26262E+11-9.94618E+11 1.92593E+02-6.43184E+12 6.75392E+12
 -1         2-2.16067E+13-2.16067E+13-5.04155E+13-2.70830E+05-9.05533E+12 1.36021E+13
 -1         3 7.70735E+11-5.17204E+11 3.70567E+12 7.05416E+11-1.74378E+13 1.83469E+12
 -1         4 8.11787E+11-7.96320E+11 8.72474E+10-1.43386E+10-5.32717E+12 5.35514E+12
 -1         5 2.11852E+13 2.11852E+13 4.94320E+13 2.76218E+05-1.33368E+13 9.23548E+12
 -1         6 7.91330E-02 9.90839E-02 2.36725E-01 1.73000E-02-1.08107E+13 1.10258E+13
 -1         7 6.14655E-01 2.43958E-01 7.70847E-01 4.07340E-01-1.43300E+13 1.46151E+13
 -1         8 5.07115E+11-7.55701E+11-3.63339E+12-7.19450E+11-1.79890E+12 1.77847E+13
 -1         9-1.24370E+13-1.24370E+13-2.90196E+13-5.22599E+06-7.70433E+12 1.02240E+13
 -1        10-3.22058E+12-1.44170E+12-2.12739E+13-1.28411E+12-1.03696E+13 4.08722E+12
 -1        11 1.52165E+12 9.70973E+11 2.49606E+12 5.69903E+11-1.17900E+13 2.90540E+12
 -1        12-2.23031E+12 2.14869E+12-3.94542E+11 2.35001E+10-3.36786E+12 3.44986E+12
 -1        13 1.18190E+13 1.18191E+13 2.75778E+13 5.59258E+06-9.92967E+12 7.95441E+12
 -1        14-9.76211E+12-9.76211E+12-2.27785E+13-6.80027E+06-9.96643E+12 1.22587E+13
 -1        15-1.28592E+12-9.86506E+11 1.20378E+12 1.07343E+11-1.54571E+13 8.37012E+12
 -1        16-1.00037E+12-1.51969E+12-2.38484E+12-5.86212E+11-2.87753E+12 1.19749E+13
 -1        17 9.57168E+12 9.57169E+12 2.23342E+13 6.93556E+06-1.20196E+13 1.01647E+13
 -1        18 4.27002E-01 3.46191E-01 6.33402E-01 2.55038E-01-9.70783E+12 9.90096E+12
 -1        19 9.67262E+11 1.26083E+12-1.18030E+12-1.09479E+11-8.20685E+12 1.57646E+13
 -1        20 1.41358E+12 3.15776E+12 2.08589E+13 1.30965E+12-4.00750E+12 1.05759E+13
 -1        21 7.19081E+10 1.01784E+12 3.45291E+13-3.24646E+11-2.24266E+12 6.61359E+11
 -1        22-3.59546E+11 3.81846E+11 6.60346E+11 2.47812E+09-8.97244E+11 9.08952E+11
 -1        23-9.47845E-01-1.76910E+00-2.29232E-01 2.22885E-01-1.86259E+12 1.89965E+12
 -1        24-9.97987E+11-7.05054E+10-3.38556E+13 3.31105E+11-6.48458E+11 2.28728E+12
 -1        25 2.17920E+12 8.77862E+11 2.27431E+13 3.75725E+11-7.68874E+12-3.32914E+11
 -1        26 9.83769E+10 6.22032E+11 1.95904E+13-3.52065E+11-1.66893E+12 6.34198E+11
 -1        27 1.54797E+12-1.49069E+12 4.27207E+11-7.81177E+09-7.52683E+11 7.49381E+11
 -1        28 3.15805E+11 3.76601E+11 1.59285E+13-2.15518E+09-1.95033E+12 1.37364E+12
 -1        29-5.95172E+11-9.17137E+10-1.86185E+13 3.53107E+11-6.23283E+11 1.69853E+12
 -1        30 2.11681E-01-7.06970E-01 3.25603E-01 4.95930E-01-6.15356E+12 6.27598E+12
 -1        31-3.69255E+11-3.09645E+11-1.56178E+13 2.19805E+09-1.34685E+12 1.98913E+12
 -1        32-8.60738E+11-2.13669E+12-2.22995E+13-3.83200E+11 3.26420E+11 7.84170E+12
 -1        33 6.89703E+11 7.81828E+11 1.86801E+13 3.78916E+09 1.10986E+13-2.73987E+12
 -1        34 1.18054E+11-9.16781E+10 3.55436E+11-5.43236E+08 3.92856E+12-3.98141E+12
 -1        35 1.60229E-01 2.14909E-01 3.24063E-02-1.22801E-01 9.22552E+12-9.40905E+12
 -1        36-7.66577E+11-6.76250E+11-1.83157E+13-3.86455E+09 2.68643E+12-1.13194E+13
 -1        37 2.23310E+11 9.50547E+10 2.75615E+13 2.38723E+10 3.64541E+12 5.01925E+10
 -1        38 6.76725E+11 5.56761E+11 1.05195E+13-2.82122E+10 7.96279E+12-2.74752E+12
 -1        39 5.68690E+11-5.60230E+11 5.27524E+11-2.14358E+09 5.67149E+11-5.66784E+11
 -1        40 2.19687E+11 2.02767E+11 8.67563E+12 3.42449E+10 9.76682E+12-6.29272E+12
 -1        41-5.37458E+11-6.60847E+11-9.99416E+12 2.67930E+10 2.69881E+12-8.09898E+12
 -1        42-7.72247E-02-4.44397E-01 7.73182E-02 1.37166E-01 2.81410E+12-2.87009E+12
 -1        43-1.98812E+11-2.15402E+11-8.50640E+12-3.49261E+10 6.16998E+12-9.96112E+12
 -1        44-9.32006E+10-2.18954E+11-2.70239E+13-2.43472E+10-4.92135E+10-3.71794E+12
 -1        45-4.69561E+11-6.32755E+11-2.00963E+13 3.59247E+10 1.15289E+13-2.81939E+12
 -1        46-4.97241E+10 2.93958E+10-3.84134E+11-4.37953E+06 4.02119E+12-4.07576E+12
 -1        47 5.54497E-01-1.99620E+00 3.70287E-01 2.47156E-01 9.57720E+12-9.76773E+12
 -1        48 6.20413E+11 4.60402E+11 1.97042E+13-3.66394E+10 2.76439E+12-1.17582E+13
 -1        49 1.06664E+11 4.56002E+10-6.99977E+11 2.53198E+10 9.09923E+12-1.62893E+11
 -1        50-4.48348E+11-4.06317E+11-1.11038E+13 5.92574E+10 8.23301E+12-2.83062E+12
 -1        51 6.35423E+10-6.09648E+10-1.41605E+10-3.39934E+08 1.62784E+12-1.63194E+12
 -1        52-2.01139E+11-1.91542E+11-9.48188E+12-2.32514E+10 1.01491E+13-6.50094E+12
 -1        53 3.89780E+11 4.36515E+11 1.05341E+13-5.85363E+10 2.78035E+12-8.37384E+12
 -1        54 8.82697E-01-4.72753E-01 2.65751E-01-7.51472E-02 7.03553E+12-7.17550E+12
 -1        55 1.87806E+11 1.97215E+11 9.29692E+12 2.37140E+10 6.37413E+12-1.03510E+13
 -1        56-4.47107E+10-1.04583E+11 6.86323E+11-2.58235E+10 1.59716E+11-9.28025E+12
 -1        57-8.10951E+11-1.21804E+12-3.82053E+13 1.04387E+11-9.40365E+11 2.32328E+11
 -1        58-4.07833E+10 2.96838E+09-7.29907E+11-3.46182E+08-3.25420E+11 3.29966E+11
 -1        59 7.78685E+00 1.48301E+01 5.24144E+00 1.38621E+00-7.82534E+11 7.98102E+11
 -1        60 1.19428E+12 7.95132E+11 3.74601E+13-1.06464E+11-2.27796E+11 9.59073E+11
 -1        61-5.61991E+11-2.03098E+11-3.01940E+13-1.05128E+11 4.25843E+12-6.67264E+10
 -1        62-7.63395E+11-7.54362E+11-2.11857E+13 1.48285E+11-6.68750E+11 2.32878E+11
 -1        63-7.00239E+11 6.84300E+11-5.79251E+11 3.07749E+09 7.52795E+11-7.54598E+11
 -1        64-4.04258E+11-3.94043E+11-1.79856E+13-3.98150E+10-8.28593E+11 5.31423E+11
 -1        65 7.21995E+11 7.41926E+11 2.01036E+13-1.47193E+11-2.28715E+11 6.80297E+11
 -1        66 3.40596E+00 6.10501E+00 2.63800E+00 5.69644E-01 3.29265E+12-3.35815E+12
 -1        67 3.86357E+11 3.96372E+11 1.76347E+13 4.06071E+10-5.21057E+11 8.45077E+11
 -1        68 1.99136E+11 5.51029E+11 2.96050E+13 1.07220E+11 6.54248E+10-4.34315E+12
 -1        69-3.67051E+11-5.32886E+11-1.54217E+13 4.07229E+10-1.27539E+13 3.12244E+12
 -1        70-2.64327E+10 9.71701E+09-2.94297E+11-9.41605E+07-4.45113E+12 4.51160E+12
 -1        71-3.03221E+00-2.74051E+00-1.37350E+00-6.54502E-01-1.06030E+13 1.08139E+13
 -1        72 5.22492E+11 3.59891E+11 1.51209E+13-4.15330E+10-3.06153E+12 1.30077E+13
 -1        73-5.05539E+11-1.86902E+11-2.77804E+13-9.20308E+10-5.48425E+12 9.28405E+10
 -1        74-3.48294E+11-3.33607E+11-8.60294E+12 6.00999E+10-9.10542E+12 3.13507E+12
 -1        75-6.48796E+11 6.34305E+11-5.32673E+11 2.83376E+09-9.58083E+11 9.60526E+11
 -1        76-1.73601E+11-1.68086E+11-7.22357E+12-1.79137E+10-1.12309E+13 7.20219E+12
 -1        77 3.19543E+11 3.38750E+11 8.16718E+12-5.95722E+10-3.07942E+12 9.26152E+12
 -1        78 7.02545E-01 3.25719E+00 9.90765E-01 5.52114E-01-4.25061E+12 4.33517E+12
 -1        79 1.64807E+11 1.70214E+11 7.08267E+12 1.82701E+10-7.06170E+12 1.14543E+13
 -1        80 1.83256E+11 4.95678E+11 2.72385E+13 9.38617E+10-9.10296E+10 5.59335E+12
 -1        81 4.68130E+11 6.93994E+11 2.47759E+13-6.00127E+10-1.14250E+13 2.79433E+12
 -1        82 2.60558E+10-4.58835E+09 4.74187E+11 2.08219E+08-3.97587E+12 4.03007E+12
 -1        83 2.62701E+00-6.21269E-01-3.13757E-01 9.71398E-01-9.50024E+12 9.68924E+12
 -1        84-6.80456E+11-4.58999E+11-2.42926E+13 6.12066E+10-2.73983E+12 1.16523E+13
 -1        85 5.97946E+10 1.56288E+10 4.83300E+12 1.12783E+10-9.68328E+12 1.62273E+11
 -1        86 4.40095E+11 4.31158E+11 1.36106E+13-8.53167E+10-8.15005E+12 2.80268E+12
 -1        87 7.61562E+10-7.44820E+10 9.32953E+10-3.27321E+08-1.68713E+12 1.69139E+12
 -1        88 2.30214E+11 2.23953E+11 1.17500E+13 2.21784E+10-1.00611E+13 6.45157E+12
 -1        89-4.12771E+11-4.27855E+11-1.29064E+13 8.47068E+10-2.75285E+12 8.28993E+12
 -1        90-1.14767E+00-3.23084E+00-1.78422E+00-5.21486E-02-7.50612E+12 7.65545E+12
 -1        91-2.19584E+11-2.25723E+11-1.15208E+13-2.26197E+10-6.32572E+12 1.02612E+13
 -1        92-1.53240E+10-5.86282E+10-4.73872E+12-1.15027E+10-1.59107E+11 9.87592E+12
 -1        93 6.51004E+11 1.03042E+12 4.09869E+13-1.06522E+11 1.03874E+12-2.18634E+11
 -1        94 4.86582E+09 2.64459E+10 7.85232E+11 4.15873E+08 3.39267E+11-3.43218E+11
 -1        95-2.20602E+00 3.29369E-01-1.36548E+00-2.34906E-01 8.41030E+11-8.57762E+11
 -1        96-1.01032E+12-6.38306E+11-4.01874E+13 1.08641E+11 2.14369E+11-1.05940E+12
 -1        97 5.37627E+11 1.76583E+11 3.40470E+13 9.88300E+10-4.12068E+12 8.21221E+10
 -1        98 5.90827E+11 6.25514E+11 2.23383E+13-1.41022E+11 7.47872E+11-2.07261E+11
 -1        99 6.96109E+11-6.80461E+11 6.54787E+11-3.02695E+09-7.09058E+11 7.11155E+11
 -1       100 3.54086E+11 3.52968E+11 1.95567E+13 2.96946E+10 9.00934E+11-5.58712E+11
 -1       101-5.97966E+11-5.73110E+11-2.11705E+13 1.40228E+11 2.03494E+11-7.59727E+11
 -1       102 8.42926E-01 1.19949E+00-1.12747E-01 6.91209E-02-3.21019E+12 3.27406E+12
 -1       103-3.46083E+11-3.47179E+11-1.91752E+13-3.02854E+10 5.47813E+11-9.18858E+11
 -1       104-1.73138E+11-5.27140E+11-3.33829E+13-1.00796E+11-8.05202E+10 4.20266E+12
 -1       105 1.15981E+10-1.78530E+10 1.98973E+13-9.28227E+09 9.46534E+12-2.34568E+12
 -1       106-2.69715E+10 2.81260E+10 3.89639E+11 5.23987E+08 3.42568E+12-3.47092E+12
 -1       107 7.43778E+00 5.47926E+00 3.04320E+00-4.77754E+00 7.83305E+12-7.98888E+12
 -1       108 1.75047E+10-1.13718E+10-1.95092E+13 9.46694E+09 2.29993E+12-9.65365E+12
 -1       109 4.10159E+11 1.13015E+11 3.14926E+13 8.52149E+10 4.29721E+12-7.84252E+10
 -1       110 9.22134E+10 1.11436E+11 1.03262E+13-4.06271E+09 6.81467E+12-2.41450E+12
 -1       111 4.84759E+11-4.73718E+11 6.07709E+11-2.07311E+09 8.97412E+11-8.99447E+11
 -1       112-5.68902E+10-6.54949E+10 9.85728E+12-8.11277E+09 8.32637E+12-5.33330E+12
 -1       113-1.12227E+11-9.24888E+10-9.74401E+12 4.74059E+09 2.37259E+12-6.93042E+12
 -1       114 3.36054E+00 4.25587E+00 2.00360E+00-2.49485E+00 3.28404E+12-3.34937E+12
 -1       115 6.42174E+10 5.57805E+10-9.66500E+12 8.27417E+09 5.22927E+12-8.49202E+12
 -1       116-1.10811E+11-4.02158E+11-3.08783E+13-8.69102E+10 7.68954E+10-4.38270E+12
 -1       117-8.28172E+11-1.05245E+12-2.15519E+12-1.36356E+11 3.08099E+12-1.02287E+12
 -1       118-4.05772E+11 3.76380E+11-3.92552E+10 8.20935E+08 1.32274E+12-1.34354E+12
 -1       119-8.61862E+00-1.93723E+01-6.80053E+00 4.85184E+00 2.44282E+12-2.49142E+12
 -1       120 1.03192E+12 8.12017E+11 2.11315E+12 1.39069E+11 1.00292E+12-3.14229E+12
 -1       121-3.78012E+11-3.81553E+11 7.50585E+12-1.06503E+11 4.64139E+12 5.58981E+10
 -1       122-7.44909E+11-7.58243E+10-1.87229E+12 1.15125E+10 2.39043E+12-8.78486E+11
 -1       123-3.19384E+11 3.09630E+11 1.48748E+11 1.50929E+09 6.69894E+11-6.69227E+11
 -1       124-7.37318E+11-4.73640E+11-5.62229E+11-1.79012E+11 2.52803E+12-1.92656E+12
 -1       125 4.32109E+10 7.22884E+11 1.82113E+12-7.39106E+09 8.61583E+11-2.43417E+12
 -1       126-5.47090E+00-1.61194E+01-6.79994E+00 7.41395E-01 3.48108E+12-3.55033E+12
 -1       127 4.64401E+11 7.22936E+11 5.51262E+11 1.82573E+11 1.88898E+12-2.57832E+12
 -1       128 3.74111E+11 3.70639E+11-7.35944E+12 1.08622E+11-5.48077E+10-4.73373E+12
 -1       129 4.32791E+13 4.32791E+13 1.00984E+14 1.95552E+04-1.62858E+13 1.64157E+13
 -1       130 2.16067E+13 2.16067E+13 5.04155E+13 2.70830E+05-9.05533E+12 1.36021E+13
 -1       131-7.70735E+11 5.17204E+11-3.70567E+12-7.05416E+11-1.74378E+13 1.83469E+12
 -1       132-7.93116E+11-7.77278E+11-8.85829E+12-1.45581E+12-1.36757E+12 1.47278E+12
 -1       133 3.12494E+13 3.12494E+13 7.29158E+13 1.86637E+07-1.48445E+13 1.27727E+13
 -1       134 9.76211E+12 9.76211E+12 2.27785E+13 6.80027E+06-9.96643E+12 1.22587E+13
 -1       135 1.28592E+12 9.86506E+11-1.20378E+12-1.07343E+11-1.54571E+13 8.37012E+12
 -1       136 1.50203E+12-8.44626E+10-5.62213E+12-8.33632E+11-1.38642E+12 9.50198E+12
 -1       137 3.14883E+13 3.14883E+13 7.34733E+13 1.85572E+07-1.26185E+13 1.50430E+13
 -1       138 3.22058E+12 1.44170E+12 2.12739E+13 1.28411E+12-1.03696E+13 4.08722E+12
 -1       139-1.14417E+11 1.48262E+12-5.67020E+12-8.22245E+11-9.26792E+12 1.44338E+12
 -1       140 4.16483E+12 4.12170E+12 4.00581E+13 2.38598E+12-4.12909E+12 4.19624E+12
 -1       141-7.19081E+10-1.01784E+12-3.45291E+13 3.24646E+11-2.24266E+12 6.61359E+11
 -1       142-1.12844E+12-1.13574E+12-6.70454E+13 2.51605E+11-5.85442E+11 6.03231E+11
 -1       143-3.15805E+11-3.76601E+11-1.59285E+13 2.15518E+09-1.95033E+12 1.37364E+12
 -1       144-1.35753E+12-3.37323E+11-4.91525E+13 5.63421E+10-5.47921E+11 1.51914E+12
 -1       145-2.17920E+12-8.77862E+11-2.27431E+13-3.75725E+11-7.68874E+12-3.32914E+11
 -1       146-3.39195E+11-1.36952E+12-4.95288E+13 4.93967E+10-1.48597E+12 5.60306E+11
 -1       147-2.92286E+12-2.89293E+12-4.33746E+13-7.93134E+11 1.75056E+11-1.60262E+11
 -1       148-6.89703E+11-7.81828E+11-1.86801E+13-3.78916E+09 1.10986E+13-2.73987E+12
 -1       149-1.34004E+12-1.33797E+12-3.60877E+13-5.51552E+10 2.64418E+12-2.72209E+12
 -1       150-2.19687E+11-2.02767E+11-8.67563E+12-3.42449E+10 9.76682E+12-6.29272E+12
 -1       151-9.74551E+11-7.99470E+11-2.65677E+13-7.17738E+10 2.44591E+12-6.99291E+12
 -1       152-2.23310E+11-9.50547E+10-2.75615E+13-2.38723E+10 3.64541E+12 5.01925E+10
 -1       153-8.12644E+11-9.85328E+11-2.67698E+13-7.23156E+10 6.83471E+12-2.49955E+12
 -1       154-4.35056E+11-4.23937E+11-5.35599E+13-2.17639E+11-2.41417E+10 1.29734E+10
 -1       155 4.69561E+11 6.32755E+11 2.00963E+13-3.59247E+10 1.15289E+13-2.81939E+12
 -1       156 1.03236E+12 1.03158E+12 3.90014E+13-4.44657E+08 2.73020E+12-2.80994E+12
 -1       157 2.01139E+11 1.91542E+11 9.48188E+12 2.32514E+10 1.01491E+13-6.50094E+12
 -1       158 8.35589E+11 5.96323E+11 2.88169E+13 3.60284E+10 2.52425E+12-7.23095E+12
 -1       159-1.06664E+11-4.56002E+10 6.99977E+11-2.53198E+10 9.09923E+12-1.62893E+11
 -1       160 6.05038E+11 8.43430E+11 2.90301E+13 3.71886E+10 7.06738E+12-2.57951E+12
 -1       161-1.31462E+11-1.30235E+11 1.43773E+12-3.45137E+10 1.91871E+11-2.23977E+11
 -1       162 8.10951E+11 1.21804E+12 3.82053E+13-1.04387E+11-9.40365E+11 2.32328E+11
 -1       163 1.91991E+12 1.91947E+12 7.41080E+13-3.51481E+10-2.27517E+11 2.33972E+11
 -1       164 4.04258E+11 3.94043E+11 1.79856E+13 3.98150E+10-8.28593E+11 5.31423E+11
 -1       165 1.63586E+12 1.08248E+12 5.47266E+13 5.39923E+10-2.09095E+11 5.92820E+11
 -1       166 5.61991E+11 2.03098E+11 3.01940E+13 1.05128E+11 4.25843E+12-6.67264E+10
 -1       167 1.09731E+12 1.65041E+12 5.51333E+13 5.69026E+10-5.79533E+11 2.13641E+11
 -1       168 8.15937E+11 8.02300E+11 5.88118E+13 3.12460E+11 8.41406E+10-9.89873E+10
 -1       169 3.67051E+11 5.32886E+11 1.54217E+13-4.07229E+10-1.27539E+13 3.12244E+12
 -1       170 8.48757E+11 8.48401E+11 2.98802E+13-9.56019E+09-3.02574E+12 3.11401E+12
 -1       171 1.73601E+11 1.68086E+11 7.22357E+12 1.79137E+10-1.12309E+13 7.20219E+12
 -1       172 7.10779E+11 4.81114E+11 2.20389E+13 2.62014E+10-2.79462E+12 8.01491E+12
 -1       173 5.05539E+11 1.86902E+11 2.77804E+13 9.20308E+10-5.48425E+12 9.28405E+10
 -1       174 4.87881E+11 7.17212E+11 2.22041E+13 2.73801E+10-7.83401E+12 2.85582E+12
 -1       175 7.41952E+11 7.29314E+11 5.40827E+13 2.87713E+11-1.14543E+11 1.33440E+11
 -1       176-4.68130E+11-6.93994E+11-2.47759E+13 6.00127E+10-1.14250E+13 2.79433E+12
 -1       177-1.08995E+12-1.08965E+12-4.81445E+13 2.11406E+10-2.71223E+12 2.79108E+12
 -1       178-2.30214E+11-2.23953E+11-1.17500E+13-2.21784E+10-1.00611E+13 6.45157E+12
 -1       179-9.29258E+11-6.17087E+11-3.56162E+13-3.01251E+10-2.50209E+12 7.18206E+12
 -1       180-5.97946E+10-1.56288E+10-4.83300E+12-1.12783E+10-9.68328E+12 1.62273E+11
 -1       181-6.25636E+11-9.37570E+11-3.58774E+13-3.17997E+10-7.02014E+12 2.55681E+12
 -1       182-8.57340E+10-8.42503E+10-9.47234E+12-3.32331E+10-1.99707E+11 2.32983E+11
 -1       183-6.51004E+11-1.03042E+12-4.09869E+13 1.06522E+11 1.03874E+12-2.18634E+11
 -1       184-1.58944E+12-1.58966E+12-7.97252E+13 4.22239E+10 1.97214E+11-2.03936E+11
 -1       185-3.54086E+11-3.52968E+11-1.95567E+13-2.96946E+10 9.00934E+11-5.58712E+11
 -1       186-1.39247E+12-8.93676E+11-5.90688E+13-3.89493E+10 1.89236E+11-6.09242E+11
 -1       187-5.37627E+11-1.76583E+11-3.40470E+13-9.88300E+10-4.12068E+12 8.21221E+10
 -1       188-9.05139E+11-1.40452E+12-5.94973E+13-4.17194E+10 5.94394E+11-1.93281E+11
 -1       189-8.01166E+11-7.87608E+11-6.64810E+13-3.07328E+11-9.94648E+10 1.13453E+11
 -1       190-1.15981E+10 1.78530E+10-1.98973E+13 9.28227E+09 9.46534E+12-2.34568E+12
 -1       191-5.83371E+10-5.88798E+10-3.95603E+13 5.32007E+10 2.26257E+12-2.33050E+12
 -1       192 5.68902E+10 6.54949E+10-9.85728E+12 8.11277E+09 8.32637E+12-5.33330E+12
 -1       193 4.12335E+10 1.48924E+10-2.94542E+13 3.44561E+10 2.10422E+12-5.94367E+12
 -1       194-4.10159E+11-1.13015E+11-3.14926E+13-8.52149E+10 4.29721E+12-7.84252E+10
 -1       195 1.30732E+10 3.90306E+10-2.96519E+13 3.43693E+10 5.80829E+12-2.15137E+12
 -1       196-5.65269E+11-5.55829E+11-6.17011E+13-2.10484E+11 9.44194E+10-1.12117E+11
 -1       197 8.28172E+11 1.05245E+12 2.15519E+12 1.36356E+11 3.08099E+12-1.02287E+12
 -1       198 1.49597E+12 1.48826E+12 3.98561E+12 8.33502E+10 1.04260E+12-1.06886E+12
 -1       199 7.37318E+11 4.73640E+11 5.62229E+11 1.79012E+11 2.52803E+12-1.92656E+12
 -1       200 1.65504E+12 1.11089E+12 2.57911E+12 2.09134E+11 8.49543E+11-2.24429E+12
 -1       201 3.78012E+11 3.81553E+11-7.50585E+12 1.06503E+11 4.64139E+12 5.58981E+10
 -1       202 1.12535E+12 1.65621E+12 2.61549E+12 2.09320E+11 2.19677E+12-8.66682E+11
 -1       203 4.98239E+11 4.92044E+11-1.51025E+13 1.53240E+11-4.04864E+10 2.72971E+10
 -1       204-4.32791E+13-4.32791E+13-1.00984E+14-1.95552E+04-1.62858E+13 1.64157E+13
 -1       205 7.93116E+11 7.77278E+11 8.85829E+12 1.45581E+12-1.36757E+12 1.47278E+12
 -1       206-2.11852E+13-2.11852E+13-4.94320E+13-2.76217E+05-1.33368E+13 9.23548E+12
 -1       207-5.07115E+11 7.55701E+11 3.63339E+12 7.19450E+11-1.79890E+12 1.77847E+13
 -1       208-3.14883E+13-3.14883E+13-7.34733E+13-1.85572E+07-1.26185E+13 1.50430E+13
 -1       209-4.16483E+12-4.12170E+12-4.00581E+13-2.38598E+12-4.12909E+12 4.19624E+12
 -1       210 1.14417E+11-1.48262E+12 5.67020E+12 8.22245E+11-9.26792E+12 1.44338E+12
 -1       211-3.12494E+13-3.12494E+13-7.29158E+13-1.86637E+07-1.48445E+13 1.27727E+13
 -1       212-1.50203E+12 8.44626E+10 5.62213E+12 8.33632E+11-1.38642E+12 9.50198E+12
 -1       213-9.57168E+12-9.57169E+12-2.23342E+13-6.93556E+06-1.20196E+13 1.01647E+13
 -1       214-1.41358E+12-3.15776E+12-2.08589E+13-1.30965E+12-4.00750E+12 1.05759E+13
 -1       215-9.67262E+11-1.26083E+12 1.18030E+12 1.09479E+11-8.20685E+12 1.57646E+13
 -1       216 1.12844E+12 1.13574E+12 6.70454E+13-2.51605E+11-5.85442E+11 6.03231E+11
 -1       217 9.97987E+11 7.05054E+10 3.38556E+13-3.31105E+11-6.48458E+11 2.28728E+12
 -1       218 2.92286E+12 2.89293E+12 4.33746E+13 7.93134E+11 1.75056E+11-1.60262E+11
 -1       219 3.39195E+11 1.36952E+12 4.95288E+13-4.93967E+10-1.48597E+12 5.60306E+11
 -1       220 1.35753E+12 3.37323E+11 4.91525E+13-5.63421E+10-5.47921E+11 1.51914E+12
 -1       221 8.60738E+11 2.13669E+12 2.22995E+13 3.83200E+11 3.26420E+11 7.84170E+12
 -1       222 3.69255E+11 3.09645E+11 1.56178E+13-2.19805E+09-1.34685E+12 1.98913E+12
 -1       223 1.34004E+12 1.33797E+12 3.60877E+13 5.51552E+10 2.64418E+12-2.72209E+12
 -1       224 7.66577E+11 6.76250E+11 1.83157E+13 3.86455E+09 2.68643E+12-1.13194E+13
 -1       225 4.35056E+11 4.23937E+11 5.35599E+13 2.17639E+11-2.41417E+10 1.29734E+10
 -1       226 8.12644E+11 9.85328E+11 2.67698E+13 7.23156E+10 6.83471E+12-2.49955E+12
 -1       227 9.74551E+11 7.99470E+11 2.65677E+13 7.17738E+10 2.44591E+12-6.99291E+12
 -1       228 9.32006E+10 2.18954E+11 2.70239E+13 2.43472E+10-4.92135E+10-3.71794E+12
 -1       229 1.98812E+11 2.15402E+11 8.50640E+12 3.49261E+10 6.16998E+12-9.96112E+12
 -1       230-1.03236E+12-1.03158E+12-3.90014E+13 4.44657E+08 2.73020E+12-2.80994E+12
 -1       231-6.20413E+11-4.60402E+11-1.97042E+13 3.66394E+10 2.76439E+12-1.17582E+13
 -1       232 1.31462E+11 1.30235E+11-1.43773E+12 3.45137E+10 1.91871E+11-2.23977E+11
 -1       233-6.05038E+11-8.43430E+11-2.90301E+13-3.71886E+10 7.06738E+12-2.57951E+12
 -1       234-8.35589E+11-5.96323E+11-2.88169E+13-3.60284E+10 2.52425E+12-7.23095E+12
 -1       235 4.47107E+10 1.04583E+11-6.86323E+11 2.58235E+10 1.59716E+11-9.28025E+12
 -1       236-1.87806E+11-1.97215E+11-9.29692E+12-2.37140E+10 6.37413E+12-1.03510E+13
 -1       237-1.91991E+12-1.91947E+12-7.41080E+13 3.51481E+10-2.27517E+11 2.33972E+11
 -1       238-1.19428E+12-7.95132E+11-3.74601E+13 1.06464E+11-2.27796E+11 9.59073E+11
 -1       239-8.15937E+11-8.02300E+11-5.88118E+13-3.12460E+11 8.41406E+10-9.89873E+10
 -1       240-1.09731E+12-1.65041E+12-5.51333E+13-5.69026E+10-5.79533E+11 2.13641E+11
 -1       241-1.63586E+12-1.08248E+12-5.47266E+13-5.39923E+10-2.09095E+11 5.92820E+11
 -1       242-1.99136E+11-5.51029E+11-2.96050E+13-1.07220E+11 6.54248E+10-4.34315E+12
 -1       243-3.86357E+11-3.96372E+11-1.76347E+13-4.06071E+10-5.21057E+11 8.45077E+11
 -1       244-8.48757E+11-8.48401E+11-2.98802E+13 9.56019E+09-3.02574E+12 3.11401E+12
 -1       245-5.22492E+11-3.59891E+11-1.51209E+13 4.15330E+10-3.06153E+12 1.30077E+13
 -1       246-7.41952E+11-7.29314E+11-5.40827E+13-2.87713E+11-1.14543E+11 1.33440E+11
 -1       247-4.87881E+11-7.17212E+11-2.22041E+13-2.73801E+10-7.83401E+12 2.85582E+12
 -1       248-7.10779E+11-4.81114E+11-2.20389E+13-2.62014E+10-2.79462E+12 8.01491E+12
 -1       249-1.83256E+11-4.95678E+11-2.72385E+13-9.38617E+10-9.10296E+10 5.59335E+12
 -1       250-1.64807E+11-1.70214E+11-7.08267E+12-1.82701E+10-7.06170E+12 1.14543E+13
 -1       251 1.08995E+12 1.08965E+12 4.81445E+13-2.11406E+10-2.71223E+12 2.79108E+12
 -1       252 6.80456E+11 4.58999E+11 2.42926E+13-6.12066E+10-2.73983E+12 1.16523E+13
 -1       253 8.57340E+10 8.42503E+10 9.47234E+12 3.32331E+10-1.99707E+11 2.32983E+11
 -1       254 6.25636E+11 9.37570E+11 3.58774E+13 3.17997E+10-7.02014E+12 2.55681E+12
 -1       255 9.29258E+11 6.17087E+11 3.56162E+13 3.01251E+10-2.50209E+12 7.18206E+12
 -1       256 1.53240E+10 5.86282E+10 4.73872E+12 1.15027E+10-1.59107E+11 9.87592E+12
 -1       257 2.19584E+11 2.25723E+11 1.15208E+13 2.26197E+10-6.32572E+12 1.02612E+13
 -1       258 1.58944E+12 1.58966E+12 7.97252E+13-4.22239E+10 1.97214E+11-2.03936E+11
 -1       259 1.01032E+12 6.38306E+11 4.01874E+13-1.08641E+11 2.14369E+11-1.05940E+12
 -1       260 8.01166E+11 7.87608E+11 6.64810E+13 3.07328E+11-9.94648E+10 1.13453E+11
 -1       261 9.05139E+11 1.40452E+12 5.94973E+13 4.17194E+10 5.94394E+11-1.93281E+11
 -1       262 1.39247E+12 8.93676E+11 5.90688E+13 3.89493E+10 1.89236E+11-6.09242E+11
 -1       263 1.73138E+11 5.27140E+11 3.33829E+13 1.00796E+11-8.05202E+10 4.20266E+12
 -1       264 3.46083E+11 3.47179E+11 1.91752E+13 3.02854E+10 5.47813E+11-9.18858E+11
 -1       265 5.83371E+10 5.88798E+10 3.95603E+13-5.32007E+10 2.26257E+12-2.33050E+12
 -1       266-1.75047E+10 1.13718E+10 1.95092E+13-9.46694E+09 2.29993E+12-9.65365E+12
 -1       267 5.65269E+11 5.55829E+11 6.17011E+13 2.10484E+11 9.44194E+10-1.12117E+11
 -1       268-1.30732E+10-3.90306E+10 2.96519E+13-3.43693E+10 5.80829E+12-2.15137E+12
 -1       269-4.12335E+10-1.48924E+10 2.94542E+13-3.44561E+10 2.10422E+12-5.94367E+12
 -1       270 1.10811E+11 4.02158E+11 3.08783E+13 8.69102E+10 7.68954E+10-4.38270E+12
 -1       271-6.42174E+10-5.57805E+10 9.66500E+12-8.27417E+09 5.22927E+12-8.49202E+12
 -1       272-1.49597E+12-1.48826E+12-3.98561E+12-8.33502E+10 1.04260E+12-1.06886E+12
 -1       273-1.03192E+12-8.12017E+11-2.11315E+12-1.39069E+11 1.00292E+12-3.14229E+12
 -1       274-4.98239E+11-4.92044E+11 1.51025E+13-1.53240E+11-4.04864E+10 2.72971E+10
 -1       275-1.12535E+12-1.65621E+12-2.61549E+12-2.09320E+11 2.19677E+12-8.66682E+11
 -1       276-1.65504E+12-1.11089E+12-2.57911E+12-2.09134E+11 8.49543E+11-2.24429E+12
 -1       277-3.74111E+11-3.70639E+11 7.35944E+12-1.08622E+11-5.48077E+10-4.73373E+12
 -1       278-4.64401E+11-7.22936E+11-5.51262E+11-1.82573E+11 1.88898E+12-2.57832E+12
 -1       279 4.26271E+11 4.26262E+11 9.94618E+11-1.92600E+02-6.43184E+12 6.75392E+12
 -1       280-8.11787E+11 7.96320E+11-8.72474E+10 1.43386E+10-5.32717E+12 5.35514E+12
 -1       281-1.18190E+13-1.18191E+13-2.75778E+13-5.59258E+06-9.92967E+12 7.95441E+12
 -1       282 1.00037E+12 1.51969E+12 2.38484E+12 5.86212E+11-2.87753E+12 1.19749E+13
 -1       283 1.24370E+13 1.24370E+13 2.90196E+13 5.22599E+06-7.70433E+12 1.02240E+13
 -1       284 2.23031E+12-2.14869E+12 3.94542E+11-2.35001E+10-3.36786E+12 3.44986E+12
 -1       285-1.52165E+12-9.70973E+11-2.49606E+12-5.69903E+11-1.17900E+13 2.90540E+12
 -1       286 3.59546E+11-3.81846E+11-6.60346E+11-2.47812E+09-8.97244E+11 9.08952E+11
 -1       287 5.95172E+11 9.17137E+10 1.86185E+13-3.53107E+11-6.23283E+11 1.69853E+12
 -1       288-1.54797E+12 1.49069E+12-4.27207E+11 7.81177E+09-7.52683E+11 7.49381E+11
 -1       289-9.83769E+10-6.22032E+11-1.95904E+13 3.52065E+11-1.66893E+12 6.34198E+11
 -1       290-1.18054E+11 9.16781E+10-3.55436E+11 5.43236E+08 3.92856E+12-3.98141E+12
 -1       291 5.37458E+11 6.60847E+11 9.99416E+12-2.67930E+10 2.69881E+12-8.09898E+12
 -1       292-5.68690E+11 5.60230E+11-5.27524E+11 2.14358E+09 5.67149E+11-5.66784E+11
 -1       293-6.76725E+11-5.56761E+11-1.05195E+13 2.82122E+10 7.96279E+12-2.74752E+12
 -1       294 4.97241E+10-2.93958E+10 3.84134E+11 4.37953E+06 4.02119E+12-4.07576E+12
 -1       295-3.89780E+11-4.36515E+11-1.05341E+13 5.85363E+10 2.78035E+12-8.37384E+12
 -1       296-6.35423E+10 6.09648E+10 1.41605E+10 3.39934E+08 1.62784E+12-1.63194E+12
 -1       297 4.48348E+11 4.06317E+11 1.11038E+13-5.92574E+10 8.23301E+12-2.83062E+12
 -1       298 4.07833E+10-2.96838E+09 7.29907E+11 3.46182E+08-3.25420E+11 3.29966E+11
 -1       299-7.21995E+11-7.41926E+11-2.01036E+13 1.47193E+11-2.28715E+11 6.80297E+11
 -1       300 7.00239E+11-6.84300E+11 5.79251E+11-3.07749E+09 7.52795E+11-7.54598E+11
 -1       301 7.63395E+11 7.54362E+11 2.11857E+13-1.48285E+11-6.68750E+11 2.32878E+11
 -1       302 2.64327E+10-9.71701E+09 2.94297E+11 9.41605E+07-4.45113E+12 4.51160E+12
 -1       303-3.19543E+11-3.38750E+11-8.16718E+12 5.95722E+10-3.07942E+12 9.26152E+12
 -1       304 6.48796E+11-6.34305E+11 5.32673E+11-2.83376E+09-9.58083E+11 9.60526E+11
 -1       305 3.48294E+11 3.33607E+11 8.60294E+12-6.00999E+10-9.10542E+12 3.13507E+12
 -1       306-2.60558E+10 4.58835E+09-4.74187E+11-2.08219E+08-3.97587E+12 4.03007E+12
 -1       307 4.12771E+11 4.27855E+11 1.29064E+13-8.47068E+10-2.75285E+12 8.28993E+12
 -1       308-7.61562E+10 7.44820E+10-9.32953E+10 3.27321E+08-1.68713E+12 1.69139E+12
 -1       309-4.40095E+11-4.31158E+11-1.36106E+13 8.53167E+10-8.15005E+12 2.80268E+12
 -1       310-4.86582E+09-2.64459E+10-7.85232E+11-4.15873E+08 3.39267E+11-3.43218E+11
 -1       311 5.97966E+11 5.73110E+11 2.11705E+13-1.40228E+11 2.03494E+11-7.59727E+11
 -1       312-6.96109E+11 6.80461E+11-6.54787E+11 3.02695E+09-7.09058E+11 7.11155E+11
 -1       313-5.90827E+11-6.25514E+11-2.23383E+13 1.41022E+11 7.47872E+11-2.07261E+11
 -1       314 2.69715E+10-2.81260E+10-3.89639E+11-5.23987E+08 3.42568E+12-3.47092E+12
 -1       315 1.12227E+11 9.24888E+10 9.74401E+12-4.74059E+09 2.37259E+12-6.93042E+12
 -1       316-4.84759E+11 4.73718E+11-6.07709E+11 2.07311E+09 8.97412E+11-8.99447E+11
 -1       317-9.22134E+10-1.11436E+11-1.03262E+13 4.06271E+09 6.81467E+12-2.41450E+12
 -1       318 4.05772E+11-3.76380E+11 3.92552E+10-8.20935E+08 1.32274E+12-1.34354E+12
 -1       319-4.32109E+10-7.22884E+11-1.82113E+12 7.39106E+09 8.61583E+11-2.43417E+12
 -1       320 3.19384E+11-3.09630E+11-1.48748E+11-1.50929E+09 6.69894E+11-6.69227E+11
 -1       321 7.44909E+11 7.58243E+10 1.87229E+12-1.15125E+10 2.39043E+12-8.78486E+11
 -3
    1PSTEP                        39           1           1          
    1PGM                1.000000E+00                                  
    1PGK                2.305001E+10                                  
    1PHID                         -1                                  
    1PSUBC                         0                                  
    1PMODE                        10                                  
  100CL  110 24163.27076         321                     2   10MODAL      1
 -4  TOSTRAIN    6    1
 -5  EXX         1    4    1    1
 -5  EYY         1    4    2    2
 -5  EZZ         1    4    3    3
 -5  EXY         1    4    1    2
 -5  EYZ         1    4    2    3
 -5  EZX         1    4    3    1
 -1         1-3.51029E-05 2.51832E-05-3.51837E+00 1.19224E-09-3.98161E+01 4.18100E+01
 -1         2-2.64347E-04-2.40038E-04-1.78340E+02-1.67656E-06-5.60568E+01 8.42036E+01
 -1         3-8.84785E-01-8.85774E+00 1.72839E+01 4.36686E+00-1.07948E+02 1.13576E+01
 -1         4 4.87861E+00-5.07634E+00 3.93368E-01-8.87629E-02-3.29777E+01 3.31509E+01
 -1         5 2.35356E-04 2.59190E-04 1.74861E+02 1.70992E-06-8.25611E+01 5.71720E+01
 -1         6-9.89486E-14 1.24969E-14 8.79562E-13 1.06411E-13-6.69236E+01 6.82550E+01
 -1         7 1.47415E-12-8.16014E-13 2.44343E-12 2.52139E-12-8.87098E+01 9.04746E+01
 -1         8 8.68496E+00 8.67527E-01-1.69467E+01-4.45374E+00-1.11360E+01 1.10096E+02
 -1         9-3.82374E-05 1.04046E-04-1.02655E+02-3.23513E-05-4.76935E+01 6.32917E+01
 -1        10 1.71148E+01 2.81269E+01-9.46439E+01-7.94923E+00-6.41926E+01 2.53019E+01
 -1        11 2.29305E+00-1.11590E+00 8.32511E+00 3.52797E+00-7.29859E+01 1.79858E+01
 -1        12-1.31264E+01 1.39816E+01-1.76218E+00 1.45477E-01-2.08487E+01 2.13563E+01
 -1        13-8.83694E-05 5.26076E-05 9.75542E+01 3.46208E-05-6.14694E+01 4.92416E+01
 -1        14 3.55491E-04 3.92461E-04-8.05774E+01-4.20969E-05-6.16969E+01 7.58872E+01
 -1        15-6.43381E+00-4.58031E+00 8.97861E+00 6.64506E-01-9.56866E+01 5.18150E+01
 -1        16 8.14236E-01-2.40061E+00-7.75629E+00-3.62893E+00-1.78133E+01 7.41304E+01
 -1        17-3.84806E-04-3.48556E-04 7.90056E+01 4.29344E-05-7.44069E+01 6.29244E+01
 -1        18 6.34159E-13 1.32339E-13 1.90705E-12 1.57744E-12-6.00961E+01 6.12917E+01
 -1        19 4.49097E+00 6.30831E+00-8.80347E+00-6.77726E-01-5.08043E+01 9.75902E+01
 -1        20-2.75782E+01-1.67809E+01 9.27978E+01 8.10737E+00-2.48083E+01 6.54697E+01
 -1        21-5.04390E+01-4.45832E+01 1.62868E+02-2.00971E+00-1.38832E+01 4.09413E+00
 -1        22-3.20097E+00 1.38860E+00 3.11265E+00 1.53407E-02-5.55437E+00 5.62684E+00
 -1        23-1.65667E-12-6.74139E-12 2.79029E-12 1.37927E-12-1.15303E+01 1.17597E+01
 -1        24 4.37135E+01 4.94551E+01-1.59691E+02 2.04970E+00-4.01427E+00 1.41594E+01
 -1        25-2.33671E+01-3.14230E+01 1.03933E+02 2.32592E+00-4.75970E+01-2.06089E+00
 -1        26-2.84065E+01-2.51648E+01 9.22586E+01-2.17945E+00-1.03315E+01 3.92599E+00
 -1        27 8.89053E+00-9.92018E+00 1.95249E+00-4.83586E-02-4.65947E+00 4.63902E+00
 -1        28-2.17891E+01-2.14128E+01 7.48607E+01-1.33416E-02-1.20735E+01 8.50350E+00
 -1        29 2.38947E+01 2.70114E+01-8.76782E+01 2.18590E+00-3.85842E+00 1.05147E+01
 -1        30 1.55673E-12-4.13203E-12 2.25120E-12 3.06997E-12-3.80935E+01 3.88513E+01
 -1        31 2.09951E+01 2.13641E+01-7.34004E+01 1.36070E-02-8.33762E+00 1.23137E+01
 -1        32 3.08100E+01 2.29113E+01-1.01906E+02-2.37219E+00 2.02069E+00 4.85439E+01
 -1        33-2.45185E+01-2.39482E+01 8.68508E+01 2.34567E-02 6.87055E+01-1.69611E+01
 -1        34 1.85367E-01-1.11298E+00 1.65487E+00-3.36289E-03 2.43196E+01-2.46468E+01
 -1        35 4.10866E-13 7.48401E-13-3.84704E-13-7.60256E-13 5.71103E+01-5.82465E+01
 -1        36 2.34811E+01 2.40402E+01-8.51566E+01-2.39234E-02 1.66303E+01-7.00724E+01
 -1        37-3.84460E+01-3.92399E+01 1.30790E+02 1.47781E-01 2.25668E+01 3.10716E-01
 -1        38-1.26007E+01-1.33433E+01 4.83307E+01-1.74647E-01 4.92935E+01-1.70084E+01
 -1        39 2.75477E+00-4.23378E+00 2.49993E+00-1.32698E-02 3.51092E+00-3.50866E+00
 -1        40-1.16373E+01-1.17420E+01 4.07090E+01 2.11992E-01 6.04613E+01-3.89550E+01
 -1        41 1.26621E+01 1.18983E+01-4.58793E+01 1.65861E-01 1.67069E+01-5.01366E+01
 -1        42 1.56319E-13-2.11497E-12 1.10780E-12 8.49078E-13 1.74206E+01-1.77672E+01
 -1        43 1.15130E+01 1.14103E+01-3.99149E+01-2.16209E-01 3.81951E+01-6.16641E+01
 -1        44 3.84745E+01 3.76960E+01-1.28239E+02-1.50721E-01-3.04655E-01-2.30158E+01
 -1        45 2.73769E+01 2.63666E+01-9.41217E+01 2.22391E-01 7.13692E+01-1.74534E+01
 -1        46 2.69988E-01 7.59778E-01-1.80017E+00-2.71114E-05 2.48931E+01-2.52309E+01
 -1        47 4.96259E-12-1.08266E-11 3.82127E-12 1.53000E-12 5.92874E+01-6.04669E+01
 -1        48-2.58523E+01-2.68428E+01 9.22857E+01-2.26815E-01 1.71129E+01-7.27890E+01
 -1        49 1.44275E+00 1.06473E+00-3.55074E+00 1.56741E-01 5.63286E+01-1.00839E+00
 -1        50 1.43081E+01 1.45683E+01-5.16545E+01 3.66832E-01 5.09662E+01-1.75229E+01
 -1        51 4.09904E-01-3.60854E-01-7.11132E-02-2.10435E-03 1.00771E+01-1.01025E+01
 -1        52 1.28614E+01 1.29208E+01-4.45908E+01-1.43937E-01 6.28279E+01-4.02439E+01
 -1        53-1.38162E+01-1.35269E+01 4.89819E+01-3.62367E-01 1.72117E+01-5.18380E+01
 -1        54 4.49946E-12-3.89239E-12 6.79358E-13-4.65219E-13 4.35533E+01-4.44198E+01
 -1        55-1.26687E+01-1.26105E+01 4.37210E+01 1.46801E-01 3.94589E+01-6.40778E+01
 -1        56-1.04397E+00-1.41461E+00 3.48148E+00-1.59860E-01 9.88716E-01-5.74492E+01
 -1        57 5.24574E+01 4.99374E+01-1.79032E+02 6.46207E-01-5.82131E+00 1.43822E+00
 -1        58 8.44278E-01 1.11512E+00-3.42173E+00-2.14303E-03-2.01451E+00 2.04264E+00
 -1        59 8.40367E-12 5.20047E-11-7.34296E-12 8.58160E-12-4.84426E+00 4.94063E+00
 -1        60-4.89633E+01-5.14342E+01 1.75539E+02-6.59063E-01-1.41017E+00 5.93712E+00
 -1        61 4.07483E+01 4.29700E+01-1.42688E+02-6.50793E-01 2.63617E+01-4.13068E-01
 -1        62 2.77077E+01 2.77636E+01-9.87160E+01 9.17953E-01-4.13988E+00 1.44163E+00
 -1        63-3.48454E+00 5.08642E+00-2.73557E+00 1.90511E-02 4.66016E+00-4.67132E+00
 -1        64 2.43315E+01 2.43948E+01-8.45051E+01-2.46474E-01-5.12938E+00 3.28976E+00
 -1        65-2.63413E+01-2.62179E+01 9.36403E+01-9.11192E-01-1.41585E+00 4.21136E+00
 -1        66 3.73085E-12 2.04363E-11-1.02205E-12 3.52625E-12 2.03831E+01-2.07886E+01
 -1        67-2.39189E+01-2.38569E+01 8.28567E+01 2.51377E-01-3.22559E+00 5.23143E+00
 -1        68-4.21318E+01-3.99535E+01 1.39905E+02 6.63740E-01 4.05010E-01-2.68862E+01
 -1        69 2.10444E+01 2.00178E+01-7.21509E+01 2.52094E-01-7.89529E+01 1.93294E+01
 -1        70 2.80673E-01 5.04457E-01-1.37754E+00-5.82898E-04-2.75546E+01 2.79290E+01
 -1        71-8.56418E-12-6.75651E-12 1.71095E-12-4.05193E-12-6.56374E+01 6.69432E+01
 -1        72-1.96273E+01-2.06339E+01 7.07435E+01-2.57109E-01-1.89523E+01 8.05236E+01
 -1        73 3.75459E+01 3.95184E+01-1.31298E+02-5.69714E-01-3.39501E+01 5.74727E-01
 -1        74 1.11080E+01 1.11989E+01-3.99923E+01 3.72047E-01-5.63669E+01 1.94076E+01
 -1        75-3.23469E+00 4.70831E+00-2.51584E+00 1.75423E-02-5.93099E+00 5.94611E+00
 -1        76 9.73284E+00 9.76698E+00-3.39099E+01-1.10894E-01-6.95247E+01 4.45850E+01
 -1        77-1.06297E+01-1.05108E+01 3.79509E+01-3.68780E-01-1.90631E+01 5.73332E+01
 -1        78-2.72066E-12 1.30924E-11-9.46368E-13 3.41778E-12-2.63133E+01 2.68368E+01
 -1        79-9.57647E+00-9.54299E+00 3.32484E+01 1.13101E-01-4.37153E+01 7.09078E+01
 -1        80-3.87476E+01-3.68135E+01 1.28737E+02 5.81048E-01-5.63516E-01 3.46255E+01
 -1        81-3.41564E+01-3.27582E+01 1.16320E+02-3.71507E-01-7.07260E+01 1.72983E+01
 -1        82-5.46780E-01-7.36481E-01 2.22736E+00 1.28898E-03-2.46125E+01 2.49480E+01
 -1        83 1.38425E-11-6.26088E-12-4.35574E-12 6.01331E-12-5.88110E+01 5.99810E+01
 -1        84 3.21192E+01 3.34901E+01-1.14051E+02 3.78898E-01-1.69608E+01 7.21331E+01
 -1        85-6.64187E+00-6.91528E+00 2.29065E+01 6.98183E-02-5.99441E+01 1.00454E+00
 -1        86-1.79640E+01-1.80193E+01 6.35677E+01-5.28151E-01-5.04527E+01 1.73499E+01
 -1        87 3.35773E-01-5.96750E-01 4.41871E-01-2.02627E-03-1.04441E+01 1.04705E+01
 -1        88-1.60093E+01-1.60481E+01 5.53034E+01 1.37295E-01-6.22828E+01 3.99383E+01
 -1        89 1.70834E+01 1.69900E+01-6.02584E+01 5.24375E-01-1.70415E+01 5.13186E+01
 -1        90 1.69836E-12-1.11955E-11-2.24292E-12-3.22854E-13-4.64664E+01 4.73909E+01
 -1        91 1.57351E+01 1.56971E+01-5.42246E+01-1.40026E-01-3.91592E+01 6.35219E+01
 -1        92 6.78039E+00 6.51231E+00-2.24597E+01-7.12073E-02-9.84949E-01 6.11367E+01
 -1        93-5.69247E+01-5.45759E+01 1.92774E+02-6.59421E-01 6.43029E+00-1.35345E+00
 -1        94-1.13637E+00-1.00278E+00 3.69447E+00 2.57445E-03 2.10023E+00-2.12468E+00
 -1        95-9.03083E-12 6.66911E-12-3.81265E-12-1.45414E-12 5.20638E+00-5.30995E+00
 -1        96 5.35113E+01 5.58143E+01-1.89013E+02 6.72540E-01 1.32705E+00-6.55822E+00
 -1        97-4.63307E+01-4.85657E+01 1.61108E+02 6.11805E-01-2.55090E+01 5.08375E-01
 -1        98-2.99920E+01-2.97773E+01 1.04635E+02-8.72994E-01 4.62968E+00-1.28305E+00
 -1        99 3.35148E+00-5.17014E+00 3.09568E+00-1.87383E-02-4.38940E+00 4.40239E+00
 -1       100-2.67563E+01-2.67632E+01 9.21171E+01 1.83824E-01 5.57721E+00-3.45869E+00
 -1       101 2.82149E+01 2.83688E+01-9.91392E+01 8.68076E-01 1.25972E+00-4.70307E+00
 -1       102 2.46420E-12 4.66771E-12-3.45942E-12 4.27967E-13-1.98726E+01 2.02680E+01
 -1       103 2.62411E+01 2.62344E+01-9.03203E+01-1.87481E-01 3.39122E+00-5.68817E+00
 -1       104 4.76184E+01 4.54269E+01-1.57966E+02-6.23976E-01-4.98458E-01 2.60164E+01
 -1       105-2.83440E+01-2.85263E+01 9.47580E+01-5.74617E-02 5.85949E+01-1.45209E+01
 -1       106-7.25243E-01-3.84163E-01 1.85377E+00 3.24373E-03 2.12066E+01-2.14867E+01
 -1       107 2.32420E-11 1.11194E-11-3.96081E-12-2.95752E-11 4.84903E+01-4.94550E+01
 -1       108 2.79699E+01 2.77911E+01-9.29096E+01 5.86049E-02 1.42376E+01-5.97607E+01
 -1       109-4.31978E+01-4.50373E+01 1.49218E+02 5.27521E-01 2.66018E+01-4.85489E-01
 -1       110-1.44717E+01-1.43527E+01 4.88813E+01-2.51501E-02 4.21860E+01-1.49469E+01
 -1       111 2.11696E+00-3.81647E+00 2.87808E+00-1.28335E-02 5.55541E+00-5.56800E+00
 -1       112-1.42592E+01-1.43124E+01 4.71143E+01-5.02219E-02 5.15442E+01-3.30157E+01
 -1       113 1.35177E+01 1.36399E+01-4.61076E+01 2.93465E-02 1.46875E+01-4.29026E+01
 -1       114 7.06207E-12 1.26038E-11-1.33948E-12-1.54444E-11 2.03298E+01-2.07342E+01
 -1       115 1.40333E+01 1.39810E+01-4.61952E+01 5.12210E-02 3.23717E+01-5.25697E+01
 -1       116 4.41588E+01 4.23552E+01-1.46307E+02-5.38016E-01 4.76019E-01-2.71310E+01
 -1       117 6.38665E-01-7.49720E-01-7.57620E+00-8.44109E-01 1.90728E+01-6.33205E+00
 -1       118-2.41386E+00 2.42804E+00-1.44940E-01 5.08198E-03 8.18840E+00-8.31714E+00
 -1       119-3.65108E-12-7.02214E-11 7.60271E-12 3.00360E-11 1.51222E+01-1.54231E+01
 -1       120 7.35095E-01-6.26207E-01 7.42842E+00 8.60902E-01 6.20853E+00-1.94523E+01
 -1       121-1.19776E+01-1.19995E+01 3.68272E+01-6.59305E-01 2.87324E+01 3.46036E-01
 -1       122-7.64166E-01 3.37779E+00-7.74319E+00 7.12680E-02 1.47979E+01-5.43825E+00
 -1       123-2.17570E+00 1.71820E+00 7.22256E-01 9.34324E-03 4.14697E+00-4.14283E+00
 -1       124-2.03123E+00-3.98931E-01-9.47342E-01-1.10817E+00 1.56497E+01-1.19263E+01
 -1       125-3.42854E+00 7.78964E-01 7.57761E+00-4.57542E-02 5.33361E+00-1.50687E+01
 -1       126 6.69034E-12-5.92288E-11-1.53922E-12 4.58961E-12 2.15495E+01-2.19782E+01
 -1       127 3.91150E-01 1.99160E+00 9.28862E-01 1.13021E+00 1.16937E+01-1.59611E+01
 -1       128 1.17655E+01 1.17440E+01-3.61089E+01 6.72422E-01-3.39286E-01-2.93040E+01
 -1       129 5.03875E-04 5.03281E-04 3.57223E+02 1.21056E-07-1.00817E+02 1.01621E+02
 -1       130 2.64347E-04 2.40038E-04 1.78340E+02 1.67656E-06-5.60568E+01 8.42036E+01
 -1       131 8.84785E-01 8.85774E+00-1.72839E+01-4.36686E+00-1.07948E+02 1.13576E+01
 -1       132 9.98836E+00 1.00864E+01-3.99389E+01-9.01216E+00-8.46591E+00 9.11722E+00
 -1       133-7.94904E-04-7.29954E-04 2.57934E+02 1.15537E-04-9.18944E+01 7.90690E+01
 -1       134-3.55491E-04-3.92461E-04 8.05774E+01 4.20969E-05-6.16969E+01 7.58872E+01
 -1       135 6.43381E+00 4.58031E+00-8.97861E+00-6.64506E-01-9.56866E+01 5.18150E+01
 -1       136 1.53048E+01 5.48364E+00-2.87971E+01-5.16058E+00-8.58259E+00 5.88218E+01
 -1       137-7.29059E-04-7.96799E-04 2.59906E+02 1.14878E-04-7.81143E+01 9.31232E+01
 -1       138-1.71148E+01-2.81269E+01 9.46439E+01 7.94923E+00-6.41926E+01 2.53019E+01
 -1       139 5.43741E+00 1.53238E+01-2.89555E+01-5.09009E+00-5.73728E+01 8.93518E+00
 -1       140-4.32815E+01-4.35485E+01 1.78915E+02 1.47703E+01-2.55610E+01 2.59767E+01
 -1       141 5.04390E+01 4.45832E+01-1.62868E+02 2.00971E+00-1.38832E+01 4.09413E+00
 -1       142 9.20281E+01 9.19829E+01-3.16029E+02 1.55756E+00-3.62416E+00 3.73429E+00
 -1       143 2.17891E+01 2.14128E+01-7.48607E+01 1.33416E-02-1.20735E+01 8.50350E+00
 -1       144 6.42353E+01 7.05509E+01-2.31638E+02 3.48784E-01-3.39189E+00 9.40419E+00
 -1       145 2.33671E+01 3.14230E+01-1.03933E+02-2.32592E+00-4.75970E+01-2.06089E+00
 -1       146 7.10967E+01 6.47185E+01-2.33410E+02 3.05789E-01-9.19887E+00 3.46856E+00
 -1       147 5.21781E+01 5.23634E+01-1.98238E+02-4.90988E+00 1.08368E+00-9.92096E-01
 -1       148 2.45185E+01 2.39482E+01-8.68508E+01-2.34567E-02 6.87055E+01-1.69611E+01
 -1       149 4.70841E+01 4.70969E+01-1.68020E+02-3.41437E-01 1.63687E+01-1.68510E+01
 -1       150 1.16373E+01 1.17420E+01-4.07090E+01-2.11992E-01 6.04613E+01-3.89550E+01
 -1       151 3.44553E+01 3.55391E+01-1.23979E+02-4.44314E-01 1.51414E+01-4.32894E+01
 -1       152 3.84460E+01 3.92399E+01-1.30790E+02-1.47781E-01 2.25668E+01 3.10716E-01
 -1       153 3.57804E+01 3.47114E+01-1.24907E+02-4.47668E-01 4.23101E+01-1.54734E+01
 -1       154 7.50480E+01 7.51169E+01-2.53820E+02-1.34729E+00-1.49449E-01 8.03113E-02
 -1       155-2.73769E+01-2.63666E+01 9.41217E+01-2.22391E-01 7.13692E+01-1.74534E+01
 -1       156-5.22740E+01-5.22788E+01 1.82773E+02-2.75264E-03 1.69012E+01-1.73949E+01
 -1       157-1.28614E+01-1.29208E+01 4.45908E+01 1.43937E-01 6.28279E+01-4.02439E+01
 -1       158-3.80400E+01-3.95211E+01 1.35178E+02 2.23033E-01 1.56263E+01-4.47630E+01
 -1       159-1.44275E+00-1.06473E+00 3.55074E+00-1.56741E-01 5.63286E+01-1.00839E+00
 -1       160-3.97953E+01-3.83195E+01 1.36169E+02 2.30215E-01 4.37505E+01-1.59684E+01
 -1       161-2.49386E+00-2.48626E+00 7.22018E+00-2.13657E-01 1.18777E+00-1.38653E+00
 -1       162-5.24574E+01-4.99374E+01 1.79032E+02-6.46207E-01-5.82131E+00 1.43822E+00
 -1       163-9.94683E+01-9.94710E+01 3.47411E+02-2.17583E-01-1.40844E+00 1.44840E+00
 -1       164-2.43315E+01-2.43948E+01 8.45051E+01 2.46474E-01-5.12938E+00 3.28976E+00
 -1       165-7.19374E+01-7.53631E+01 2.56720E+02 3.34238E-01-1.29440E+00 3.66984E+00
 -1       166-4.07483E+01-4.29700E+01 1.42688E+02 6.50793E-01 2.63617E+01-4.13068E-01
 -1       167-7.58943E+01-7.24703E+01 2.58614E+02 3.52254E-01-3.58759E+00 1.32254E+00
 -1       168-8.12776E+01-8.13620E+01 2.77744E+02 1.93428E+00 5.20871E-01-6.12779E-01
 -1       169-2.10444E+01-2.00178E+01 7.21509E+01-2.52094E-01-7.89529E+01 1.93294E+01
 -1       170-3.98563E+01-3.98585E+01 1.39862E+02-5.91821E-02-1.87308E+01 1.92772E+01
 -1       171-9.73284E+00-9.76698E+00 3.39099E+01 1.10894E-01-6.95247E+01 4.45850E+01
 -1       172-2.87868E+01-3.02085E+01 1.03244E+02 1.62199E-01-1.73000E+01 4.96161E+01
 -1       173-3.75459E+01-3.95184E+01 1.31298E+02 5.69714E-01-3.39501E+01 5.74727E-01
 -1       174-3.04214E+01-2.90018E+01 1.04012E+02 1.69496E-01-4.84962E+01 1.76789E+01
 -1       175-7.47697E+01-7.48480E+01 2.55435E+02 1.78108E+00-7.09076E-01 8.26057E-01
 -1       176 3.41564E+01 3.27582E+01-1.16320E+02 3.71507E-01-7.07260E+01 1.72983E+01
 -1       177 6.51443E+01 6.51462E+01-2.26146E+02 1.30871E-01-1.67900E+01 1.72781E+01
 -1       178 1.60093E+01 1.60481E+01-5.53034E+01-1.37295E-01-6.22828E+01 3.99383E+01
 -1       179 4.73369E+01 4.92694E+01-1.67392E+02-1.86489E-01-1.54892E+01 4.44604E+01
 -1       180 6.64187E+00 6.91528E+00-2.29065E+01-6.98183E-02-5.99441E+01 1.00454E+00
 -1       181 4.96136E+01 4.76826E+01-1.68612E+02-1.96856E-01-4.34580E+01 1.58279E+01
 -1       182 1.32440E+01 1.32532E+01-4.48635E+01-2.05729E-01-1.23628E+00 1.44227E+00
 -1       183 5.69247E+01 5.45759E+01-1.92774E+02 6.59421E-01 6.43029E+00-1.35345E+00
 -1       184 1.08595E+02 1.08594E+02-3.75102E+02 2.61386E-01 1.22085E+00-1.26246E+00
 -1       185 2.67563E+01 2.67632E+01-9.21171E+01-1.83824E-01 5.57721E+00-3.45869E+00
 -1       186 7.90299E+01 8.21176E+01-2.78014E+02-2.41115E-01 1.17146E+00-3.77150E+00
 -1       187 4.63307E+01 4.85657E+01-1.61108E+02-6.11805E-01-2.55090E+01 5.08375E-01
 -1       188 8.26924E+01 7.96010E+01-2.80021E+02-2.58263E-01 3.67958E+00-1.19650E+00
 -1       189 9.22830E+01 9.23669E+01-3.14307E+02-1.90251E+00-6.15735E-01 7.02327E-01
 -1       190 2.83440E+01 2.85263E+01-9.47580E+01 5.74617E-02 5.85949E+01-1.45209E+01
 -1       191 5.63211E+01 5.63177E+01-1.88215E+02 3.29338E-01 1.40064E+01-1.44269E+01
 -1       192 1.42592E+01 1.43124E+01-4.71143E+01 5.02219E-02 5.15442E+01-3.30157E+01
 -1       193 4.22525E+01 4.20894E+01-1.40338E+02 2.13299E-01 1.30261E+01-3.67942E+01
 -1       194 4.31978E+01 4.50373E+01-1.49218E+02-5.27521E-01 2.66018E+01-4.85489E-01
 -1       195 4.23663E+01 4.25270E+01-1.41274E+02 2.12763E-01 3.59561E+01-1.33180E+01
 -1       196 8.62467E+01 8.63052E+01-2.92213E+02-1.30300E+00 5.84501E-01-6.94058E-01
 -1       197-6.38665E-01 7.49720E-01 7.57620E+00 8.44109E-01 1.90728E+01-6.33205E+00
 -1       198-6.96157E-01-7.43845E-01 1.47159E+01 5.15977E-01 6.45420E+00-6.61677E+00
 -1       199 2.03123E+00 3.98931E-01 9.47342E-01 1.10817E+00 1.56497E+01-1.19263E+01
 -1       200 2.60972E+00-7.58836E-01 8.33014E+00 1.29464E+00 5.25908E+00-1.38932E+01
 -1       201 1.19776E+01 1.19995E+01-3.68272E+01 6.59305E-01 2.87324E+01 3.46036E-01
 -1       202-7.43638E-01 2.54269E+00 8.48104E+00 1.29579E+00 1.35990E+01-5.36517E+00
 -1       203 2.32446E+01 2.32063E+01-7.33312E+01 9.48626E-01-2.50630E-01 1.68982E-01
 -1       204-5.03875E-04-5.03281E-04-3.57223E+02-1.21056E-07-1.00817E+02 1.01621E+02
 -1       205-9.98836E+00-1.00864E+01 3.99389E+01 9.01216E+00-8.46591E+00 9.11722E+00
 -1       206-2.35356E-04-2.59190E-04-1.74861E+02-1.70992E-06-8.25611E+01 5.71720E+01
 -1       207-8.68496E+00-8.67527E-01 1.69467E+01 4.45374E+00-1.11360E+01 1.10096E+02
 -1       208 7.29059E-04 7.96799E-04-2.59906E+02-1.14878E-04-7.81143E+01 9.31232E+01
 -1       209 4.32815E+01 4.35485E+01-1.78915E+02-1.47703E+01-2.55610E+01 2.59767E+01
 -1       210-5.43741E+00-1.53238E+01 2.89555E+01 5.09009E+00-5.73728E+01 8.93518E+00
 -1       211 7.94904E-04 7.29954E-04-2.57934E+02-1.15537E-04-9.18944E+01 7.90690E+01
 -1       212-1.53048E+01-5.48364E+00 2.87971E+01 5.16058E+00-8.58259E+00 5.88218E+01
 -1       213 3.84806E-04 3.48556E-04-7.90056E+01-4.29344E-05-7.44069E+01 6.29244E+01
 -1       214 2.75782E+01 1.67809E+01-9.27978E+01-8.10737E+00-2.48083E+01 6.54697E+01
 -1       215-4.49097E+00-6.30831E+00 8.80347E+00 6.77726E-01-5.08043E+01 9.75902E+01
 -1       216-9.20281E+01-9.19829E+01 3.16029E+02-1.55756E+00-3.62416E+00 3.73429E+00
 -1       217-4.37135E+01-4.94551E+01 1.59691E+02-2.04970E+00-4.01427E+00 1.41594E+01
 -1       218-5.21781E+01-5.23634E+01 1.98238E+02 4.90988E+00 1.08368E+00-9.92096E-01
 -1       219-7.10967E+01-6.47185E+01 2.33410E+02-3.05789E-01-9.19887E+00 3.46856E+00
 -1       220-6.42353E+01-7.05509E+01 2.31638E+02-3.48784E-01-3.39189E+00 9.40419E+00
 -1       221-3.08100E+01-2.29113E+01 1.01906E+02 2.37219E+00 2.02069E+00 4.85439E+01
 -1       222-2.09951E+01-2.13641E+01 7.34004E+01-1.36070E-02-8.33762E+00 1.23137E+01
 -1       223-4.70841E+01-4.70969E+01 1.68020E+02 3.41437E-01 1.63687E+01-1.68510E+01
 -1       224-2.34811E+01-2.40402E+01 8.51566E+01 2.39234E-02 1.66303E+01-7.00724E+01
 -1       225-7.50480E+01-7.51169E+01 2.53820E+02 1.34729E+00-1.49449E-01 8.03113E-02
 -1       226-3.57804E+01-3.47114E+01 1.24907E+02 4.47668E-01 4.23101E+01-1.54734E+01
 -1       227-3.44553E+01-3.55391E+01 1.23979E+02 4.44314E-01 1.51414E+01-4.32894E+01
 -1       228-3.84745E+01-3.76960E+01 1.28239E+02 1.50721E-01-3.04655E-01-2.30158E+01
 -1       229-1.15130E+01-1.14103E+01 3.99149E+01 2.16209E-01 3.81951E+01-6.16641E+01
 -1       230 5.22740E+01 5.22788E+01-1.82773E+02 2.75264E-03 1.69012E+01-1.73949E+01
 -1       231 2.58523E+01 2.68428E+01-9.22857E+01 2.26815E-01 1.71129E+01-7.27890E+01
 -1       232 2.49386E+00 2.48626E+00-7.22018E+00 2.13657E-01 1.18777E+00-1.38653E+00
 -1       233 3.97953E+01 3.83195E+01-1.36169E+02-2.30215E-01 4.37505E+01-1.59684E+01
 -1       234 3.80400E+01 3.95211E+01-1.35178E+02-2.23033E-01 1.56263E+01-4.47630E+01
 -1       235 1.04397E+00 1.41461E+00-3.48148E+00 1.59860E-01 9.88716E-01-5.74492E+01
 -1       236 1.26687E+01 1.26105E+01-4.37210E+01-1.46801E-01 3.94589E+01-6.40778E+01
 -1       237 9.94683E+01 9.94710E+01-3.47411E+02 2.17583E-01-1.40844E+00 1.44840E+00
 -1       238 4.89633E+01 5.14342E+01-1.75539E+02 6.59063E-01-1.41017E+00 5.93712E+00
 -1       239 8.12776E+01 8.13620E+01-2.77744E+02-1.93428E+00 5.20871E-01-6.12779E-01
 -1       240 7.58943E+01 7.24703E+01-2.58614E+02-3.52254E-01-3.58759E+00 1.32254E+00
 -1       241 7.19374E+01 7.53631E+01-2.56720E+02-3.34238E-01-1.29440E+00 3.66984E+00
 -1       242 4.21318E+01 3.99535E+01-1.39905E+02-6.63740E-01 4.05010E-01-2.68862E+01
 -1       243 2.39189E+01 2.38569E+01-8.28567E+01-2.51377E-01-3.22559E+00 5.23143E+00
 -1       244 3.98563E+01 3.98585E+01-1.39862E+02 5.91821E-02-1.87308E+01 1.92772E+01
 -1       245 1.96273E+01 2.06339E+01-7.07435E+01 2.57109E-01-1.89523E+01 8.05236E+01
 -1       246 7.47697E+01 7.48480E+01-2.55435E+02-1.78108E+00-7.09076E-01 8.26057E-01
 -1       247 3.04214E+01 2.90018E+01-1.04012E+02-1.69496E-01-4.84962E+01 1.76789E+01
 -1       248 2.87868E+01 3.02085E+01-1.03244E+02-1.62199E-01-1.73000E+01 4.96161E+01
 -1       249 3.87476E+01 3.68135E+01-1.28737E+02-5.81048E-01-5.63516E-01 3.46255E+01
 -1       250 9.57647E+00 9.54299E+00-3.32484E+01-1.13101E-01-4.37153E+01 7.09078E+01
 -1       251-6.51443E+01-6.51462E+01 2.26146E+02-1.30871E-01-1.67900E+01 1.72781E+01
 -1       252-3.21192E+01-3.34901E+01 1.14051E+02-3.78898E-01-1.69608E+01 7.21331E+01
 -1       253-1.32440E+01-1.32532E+01 4.48635E+01 2.05729E-01-1.23628E+00 1.44227E+00
 -1       254-4.96136E+01-4.76826E+01 1.68612E+02 1.96856E-01-4.34580E+01 1.58279E+01
 -1       255-4.73369E+01-4.92694E+01 1.67392E+02 1.86489E-01-1.54892E+01 4.44604E+01
 -1       256-6.78039E+00-6.51231E+00 2.24597E+01 7.12073E-02-9.84949E-01 6.11367E+01
 -1       257-1.57351E+01-1.56971E+01 5.42246E+01 1.40026E-01-3.91592E+01 6.35219E+01
 -1       258-1.08595E+02-1.08594E+02 3.75102E+02-2.61386E-01 1.22085E+00-1.26246E+00
 -1       259-5.35113E+01-5.58143E+01 1.89013E+02-6.72540E-01 1.32705E+00-6.55822E+00
 -1       260-9.22830E+01-9.23669E+01 3.14307E+02 1.90251E+00-6.15735E-01 7.02327E-01
 -1       261-8.26924E+01-7.96010E+01 2.80021E+02 2.58263E-01 3.67958E+00-1.19650E+00
 -1       262-7.90299E+01-8.21176E+01 2.78014E+02 2.41115E-01 1.17146E+00-3.77150E+00
 -1       263-4.76184E+01-4.54269E+01 1.57966E+02 6.23976E-01-4.98458E-01 2.60164E+01
 -1       264-2.62411E+01-2.62344E+01 9.03203E+01 1.87481E-01 3.39122E+00-5.68817E+00
 -1       265-5.63211E+01-5.63177E+01 1.88215E+02-3.29338E-01 1.40064E+01-1.44269E+01
 -1       266-2.79699E+01-2.77911E+01 9.29096E+01-5.86049E-02 1.42376E+01-5.97607E+01
 -1       267-8.62467E+01-8.63052E+01 2.92213E+02 1.30300E+00 5.84501E-01-6.94058E-01
 -1       268-4.23663E+01-4.25270E+01 1.41274E+02-2.12763E-01 3.59561E+01-1.33180E+01
 -1       269-4.22525E+01-4.20894E+01 1.40338E+02-2.13299E-01 1.30261E+01-3.67942E+01
 -1       270-4.41588E+01-4.23552E+01 1.46307E+02 5.38016E-01 4.76019E-01-2.71310E+01
 -1       271-1.40333E+01-1.39810E+01 4.61952E+01-5.12210E-02 3.23717E+01-5.25697E+01
 -1       272 6.96157E-01 7.43845E-01-1.47159E+01-5.15977E-01 6.45420E+00-6.61677E+00
 -1       273-7.35095E-01 6.26207E-01-7.42842E+00-8.60902E-01 6.20853E+00-1.94523E+01
 -1       274-2.32446E+01-2.32063E+01 7.33312E+01-9.48626E-01-2.50630E-01 1.68982E-01
 -1       275 7.43638E-01-2.54269E+00-8.48104E+00-1.29579E+00 1.35990E+01-5.36517E+00
 -1       276-2.60972E+00 7.58836E-01-8.33014E+00-1.29464E+00 5.25908E+00-1.38932E+01
 -1       277-1.17655E+01-1.17440E+01 3.61089E+01-6.72422E-01-3.39286E-01-2.93040E+01
 -1       278-3.91150E-01-1.99160E+00-9.28862E-01-1.13021E+00 1.16937E+01-1.59611E+01
 -1       279 3.51029E-05-2.51832E-05 3.51837E+00-1.19229E-09-3.98161E+01 4.18100E+01
 -1       280-4.87861E+00 5.07634E+00-3.93368E-01 8.87629E-02-3.29777E+01 3.31509E+01
 -1       281 8.83694E-05-5.26076E-05-9.75542E+01-3.46208E-05-6.14694E+01 4.92416E+01
 -1       282-8.14236E-01 2.40061E+00 7.75629E+00 3.62893E+00-1.78133E+01 7.41304E+01
 -1       283 3.82374E-05-1.04046E-04 1.02655E+02 3.23513E-05-4.76935E+01 6.32917E+01
 -1       284 1.31264E+01-1.39816E+01 1.76218E+00-1.45477E-01-2.08487E+01 2.13563E+01
 -1       285-2.29305E+00 1.11590E+00-8.32511E+00-3.52797E+00-7.29859E+01 1.79858E+01
 -1       286 3.20097E+00-1.38860E+00-3.11265E+00-1.53407E-02-5.55437E+00 5.62684E+00
 -1       287-2.38947E+01-2.70114E+01 8.76782E+01-2.18590E+00-3.85842E+00 1.05147E+01
 -1       288-8.89053E+00 9.92018E+00-1.95249E+00 4.83586E-02-4.65947E+00 4.63902E+00
 -1       289 2.84065E+01 2.51648E+01-9.22586E+01 2.17945E+00-1.03315E+01 3.92599E+00
 -1       290-1.85367E-01 1.11298E+00-1.65487E+00 3.36289E-03 2.43196E+01-2.46468E+01
 -1       291-1.26621E+01-1.18983E+01 4.58793E+01-1.65861E-01 1.67069E+01-5.01366E+01
 -1       292-2.75477E+00 4.23378E+00-2.49993E+00 1.32698E-02 3.51092E+00-3.50866E+00
 -1       293 1.26007E+01 1.33433E+01-4.83307E+01 1.74647E-01 4.92935E+01-1.70084E+01
 -1       294-2.69988E-01-7.59778E-01 1.80017E+00 2.71114E-05 2.48931E+01-2.52309E+01
 -1       295 1.38162E+01 1.35269E+01-4.89819E+01 3.62367E-01 1.72117E+01-5.18380E+01
 -1       296-4.09904E-01 3.60854E-01 7.11132E-02 2.10435E-03 1.00771E+01-1.01025E+01
 -1       297-1.43081E+01-1.45683E+01 5.16545E+01-3.66832E-01 5.09662E+01-1.75229E+01
 -1       298-8.44278E-01-1.11512E+00 3.42173E+00 2.14303E-03-2.01451E+00 2.04264E+00
 -1       299 2.63413E+01 2.62179E+01-9.36403E+01 9.11192E-01-1.41585E+00 4.21136E+00
 -1       300 3.48454E+00-5.08642E+00 2.73557E+00-1.90511E-02 4.66016E+00-4.67132E+00
 -1       301-2.77077E+01-2.77636E+01 9.87160E+01-9.17953E-01-4.13988E+00 1.44163E+00
 -1       302-2.80673E-01-5.04457E-01 1.37754E+00 5.82898E-04-2.75546E+01 2.79290E+01
 -1       303 1.06297E+01 1.05108E+01-3.79509E+01 3.68780E-01-1.90631E+01 5.73332E+01
 -1       304 3.23469E+00-4.70831E+00 2.51584E+00-1.75423E-02-5.93099E+00 5.94611E+00
 -1       305-1.11080E+01-1.11989E+01 3.99923E+01-3.72047E-01-5.63669E+01 1.94076E+01
 -1       306 5.46780E-01 7.36481E-01-2.22736E+00-1.28898E-03-2.46125E+01 2.49480E+01
 -1       307-1.70834E+01-1.69900E+01 6.02584E+01-5.24375E-01-1.70415E+01 5.13186E+01
 -1       308-3.35773E-01 5.96750E-01-4.41871E-01 2.02627E-03-1.04441E+01 1.04705E+01
 -1       309 1.79640E+01 1.80193E+01-6.35677E+01 5.28151E-01-5.04527E+01 1.73499E+01
 -1       310 1.13637E+00 1.00278E+00-3.69447E+00-2.57445E-03 2.10023E+00-2.12468E+00
 -1       311-2.82149E+01-2.83688E+01 9.91392E+01-8.68076E-01 1.25972E+00-4.70307E+00
 -1       312-3.35148E+00 5.17014E+00-3.09568E+00 1.87383E-02-4.38940E+00 4.40239E+00
 -1       313 2.99920E+01 2.97773E+01-1.04635E+02 8.72994E-01 4.62968E+00-1.28305E+00
 -1       314 7.25243E-01 3.84163E-01-1.85377E+00-3.24373E-03 2.12066E+01-2.14867E+01
 -1       315-1.35177E+01-1.36399E+01 4.61076E+01-2.93465E-02 1.46875E+01-4.29026E+01
 -1       316-2.11696E+00 3.81647E+00-2.87808E+00 1.28335E-02 5.55541E+00-5.56800E+00
 -1       317 1.44717E+01 1.43527E+01-4.88813E+01 2.51501E-02 4.21860E+01-1.49469E+01
 -1       318 2.41386E+00-2.42804E+00 1.44940E-01-5.08198E-03 8.18840E+00-8.31714E+00
 -1       319 3.42854E+00-7.78964E-01-7.57761E+00 4.57542E-02 5.33361E+00-1.50687E+01
 -1       320 2.17570E+00-1.71820E+00-7.22256E-01-9.34324E-03 4.14697E+00-4.14283E+00
 -1       321 7.64166E-01-3.37779E+00 7.74319E+00-7.12680E-02 1.47979E+01-5.43825E+00
 -3
    1PSTEP                        40           1           1          
    1PGM                1.000000E+00                                  
    1PGK                2.305001E+10                                  
    1PHID                         -1                                  
    1PSUBC                         0                                  
    1PMODE                        10                                  
  100CL  110 24163.27076         321                     2   10MODAL      1
 -4  ERROR       1    1
 -5  STR(%)      1    1    0    0
 -1         1 2.57143E+01
 -1         2 2.57143E+01
 -1         3 2.57143E+01
 -1         4 2.57143E+01
 -1         5 2.57143E+01
 -1         6 2.57143E+01
 -1         7 2.57143E+01
 -1         8 2.57143E+01
 -1         9 2.57143E+01
 -1        10 2.57143E+01
 -1        11 2.57143E+01
 -1        12 2.57143E+01
 -1        13 2.57143E+01
 -1        14 2.57143E+01
 -1        15 2.57143E+01
 -1        16 2.57143E+01
 -1        17 2.57143E+01
 -1        18 2.57143E+01
 -1        19 2.57143E+01
 -1        20 2.57143E+01
 -1        21 2.17361E+01
 -1        22 2.17361E+01
 -1        23 2.17361E+01
 -1        24 2.17361E+01
 -1        25 2.37252E+01
 -1        26 2.17361E+01
 -1        27 2.37252E+01
 -1        28 2.17361E+01
 -1        29 2.17361E+01
 -1        30 2.37252E+01
 -1        31 2.17361E+01
 -1        32 2.37252E+01
 -1        33 2.17361E+01
 -1        34 2.17361E+01
 -1        35 2.17361E+01
 -1        36 2.17361E+01
 -1        37 2.17361E+01
 -1        38 2.17361E+01
 -1        39 2.17361E+01
 -1        40 2.17361E+01
 -1        41 2.17361E+01
 -1        42 2.17361E+01
 -1        43 2.17361E+01
 -1        44 2.17361E+01
 -1        45 2.20778E+01
 -1        46 2.20778E+01
 -1        47 2.20778E+01
 -1        48 2.20778E+01
 -1        49 2.19070E+01
 -1        50 2.20778E+01
 -1        51 2.19070E+01
 -1        52 2.20778E+01
 -1        53 2.20778E+01
 -1        54 2.19070E+01
 -1        55 2.20778E+01
 -1        56 2.19070E+01
 -1        57 2.20778E+01
 -1        58 2.20778E+01
 -1        59 2.20778E+01
 -1        60 2.20778E+01
 -1        61 2.20778E+01
 -1        62 2.20778E+01
 -1        63 2.20778E+01
 -1        64 2.20778E+01
 -1        65 2.20778E+01
 -1        66 2.20778E+01
 -1        67 2.20778E+01
 -1        68 2.20778E+01
 -1        69 2.17508E+01
 -1        70 2.17508E+01
 -1        71 2.17508E+01
 -1        72 2.17508E+01
 -1        73 2.19143E+01
 -1        74 2.17508E+01
 -1        75 2.19143E+01
 -1        76 2.17508E+01
 -1        77 2.17508E+01
 -1        78 2.19143E+01
 -1        79 2.17508E+01
 -1        80 2.19143E+01
 -1        81 2.21466E+01
 -1        82 2.21466E+01
 -1        83 2.21466E+01
 -1        84 2.21466E+01
 -1        85 2.19487E+01
 -1        86 2.21466E+01
 -1        87 2.19487E+01
 -1        88 2.21466E+01
 -1        89 2.21466E+01
 -1        90 2.19487E+01
 -1        91 2.21466E+01
 -1        92 2.19487E+01
 -1        93 2.21466E+01
 -1        94 2.21466E+01
 -1        95 2.21466E+01
 -1        96 2.21466E+01
 -1        97 2.21466E+01
 -1        98 2.21466E+01
 -1        99 2.21466E+01
 -1       100 2.21466E+01
 -1       101 2.21466E+01
 -1       102 2.21466E+01
 -1       103 2.21466E+01
 -1       104 2.21466E+01
 -1       105 2.16599E+01
 -1       106 2.16599E+01
 -1       107 2.16599E+01
 -1       108 2.16599E+01
 -1       109 2.19033E+01
 -1       110 2.16599E+01
 -1       111 2.19033E+01
 -1       112 2.16599E+01
 -1       113 2.16599E+01
 -1       114 2.19033E+01
 -1       115 2.16599E+01
 -1       116 2.19033E+01
 -1       117 2.03000E+01
 -1       118 1.91931E+01
 -1       119 2.03000E+01
 -1       120 2.03000E+01
 -1       121 2.09800E+01
 -1       122 1.97466E+01
 -1       123 2.04265E+01
 -1       124 2.03000E+01
 -1       125 1.97466E+01
 -1       126 2.09800E+01
 -1       127 2.03000E+01
 -1       128 2.09800E+01
 -1       129 1.91935E+01
 -1       130 2.57143E+01
 -1       131 2.57143E+01
 -1       132 1.91935E+01
 -1       133 2.24539E+01
 -1       134 2.57143E+01
 -1       135 2.57143E+01
 -1       136 2.24539E+01
 -1       137 2.24539E+01
 -1       138 2.57143E+01
 -1       139 2.24539E+01
 -1       140 1.91935E+01
 -1       141 2.17361E+01
 -1       142 1.81828E+01
 -1       143 2.17361E+01
 -1       144 1.99595E+01
 -1       145 2.37252E+01
 -1       146 1.99595E+01
 -1       147 1.86882E+01
 -1       148 2.17361E+01
 -1       149 1.97730E+01
 -1       150 2.17361E+01
 -1       151 2.07545E+01
 -1       152 2.17361E+01
 -1       153 2.07545E+01
 -1       154 1.89779E+01
 -1       155 2.20778E+01
 -1       156 1.97730E+01
 -1       157 2.20778E+01
 -1       158 2.09254E+01
 -1       159 2.19070E+01
 -1       160 2.09254E+01
 -1       161 1.97730E+01
 -1       162 2.20778E+01
 -1       163 1.83338E+01
 -1       164 2.20778E+01
 -1       165 2.02058E+01
 -1       166 2.20778E+01
 -1       167 2.02058E+01
 -1       168 1.90534E+01
 -1       169 2.17508E+01
 -1       170 1.96121E+01
 -1       171 2.17508E+01
 -1       172 2.06815E+01
 -1       173 2.19143E+01
 -1       174 2.06815E+01
 -1       175 1.89730E+01
 -1       176 2.21466E+01
 -1       177 1.96121E+01
 -1       178 2.21466E+01
 -1       179 2.08794E+01
 -1       180 2.19487E+01
 -1       181 2.08794E+01
 -1       182 1.96121E+01
 -1       183 2.21466E+01
 -1       184 1.84030E+01
 -1       185 2.21466E+01
 -1       186 2.02748E+01
 -1       187 2.21466E+01
 -1       188 2.02748E+01
 -1       189 1.90076E+01
 -1       190 2.16599E+01
 -1       191 2.03000E+01
 -1       192 2.16599E+01
 -1       193 2.09800E+01
 -1       194 2.19033E+01
 -1       195 2.09800E+01
 -1       196 1.93515E+01
 -1       197 2.03000E+01
 -1       198 2.03000E+01
 -1       199 2.03000E+01
 -1       200 2.03000E+01
 -1       201 2.09800E+01
 -1       202 2.03000E+01
 -1       203 2.03000E+01
 -1       204 1.91935E+01
 -1       205 1.91935E+01
 -1       206 2.57143E+01
 -1       207 2.57143E+01
 -1       208 2.24539E+01
 -1       209 1.91935E+01
 -1       210 2.24539E+01
 -1       211 2.24539E+01
 -1       212 2.24539E+01
 -1       213 2.57143E+01
 -1       214 2.57143E+01
 -1       215 2.57143E+01
 -1       216 1.81828E+01
 -1       217 2.17361E+01
 -1       218 1.86882E+01
 -1       219 1.99595E+01
 -1       220 1.99595E+01
 -1       221 2.37252E+01
 -1       222 2.17361E+01
 -1       223 1.97730E+01
 -1       224 2.17361E+01
 -1       225 1.89779E+01
 -1       226 2.07545E+01
 -1       227 2.07545E+01
 -1       228 2.17361E+01
 -1       229 2.17361E+01
 -1       230 1.97730E+01
 -1       231 2.20778E+01
 -1       232 1.97730E+01
 -1       233 2.09254E+01
 -1       234 2.09254E+01
 -1       235 2.19070E+01
 -1       236 2.20778E+01
 -1       237 1.83338E+01
 -1       238 2.20778E+01
 -1       239 1.90534E+01
 -1       240 2.02058E+01
 -1       241 2.02058E+01
 -1       242 2.20778E+01
 -1       243 2.20778E+01
 -1       244 1.96121E+01
 -1       245 2.17508E+01
 -1       246 1.89730E+01
 -1       247 2.06815E+01
 -1       248 2.06815E+01
 -1       249 2.19143E+01
 -1       250 2.17508E+01
 -1       251 1.96121E+01
 -1       252 2.21466E+01
 -1       253 1.96121E+01
 -1       254 2.08794E+01
 -1       255 2.08794E+01
 -1       256 2.19487E+01
 -1       257 2.21466E+01
 -1       258 1.84030E+01
 -1       259 2.21466E+01
 -1       260 1.90076E+01
 -1       261 2.02748E+01
 -1       262 2.02748E+01
 -1       263 2.21466E+01
 -1       264 2.21466E+01
 -1       265 2.03000E+01
 -1       266 2.16599E+01
 -1       267 1.93515E+01
 -1       268 2.09800E+01
 -1       269 2.09800E+01
 -1       270 2.19033E+01
 -1       271 2.16599E+01
 -1       272 2.03000E+01
 -1       273 2.03000E+01
 -1       274 2.03000E+01
 -1       275 2.03000E+01
 -1       276 2.03000E+01
 -1       277 2.09800E+01
 -1       278 2.03000E+01
 -1       279 2.57143E+01
 -1       280 2.57143E+01
 -1       281 2.57143E+01
 -1       282 2.57143E+01
 -1       283 2.57143E+01
 -1       284 2.57143E+01
 -1       285 2.57143E+01
 -1       286 2.17361E+01
 -1       287 2.17361E+01
 -1       288 2.37252E+01
 -1       289 2.17361E+01
 -1       290 2.17361E+01
 -1       291 2.17361E+01
 -1       292 2.17361E+01
 -1       293 2.17361E+01
 -1       294 2.20778E+01
 -1       295 2.20778E+01
 -1       296 2.19070E+01
 -1       297 2.20778E+01
 -1       298 2.20778E+01
 -1       299 2.20778E+01
 -1       300 2.20778E+01
 -1       301 2.20778E+01
 -1       302 2.17508E+01
 -1       303 2.17508E+01
 -1       304 2.19143E+01
 -1       305 2.17508E+01
 -1       306 2.21466E+01
 -1       307 2.21466E+01
 -1       308 2.19487E+01
 -1       309 2.21466E+01
 -1       310 2.21466E+01
 -1       311 2.21466E+01
 -1       312 2.21466E+01
 -1       313 2.21466E+01
 -1       314 2.16599E+01
 -1       315 2.16599E+01
 -1       316 2.19033E+01
 -1       317 2.16599E+01
 -1       318 1.91931E+01
 -1       319 1.97466E+01
 -1       320 2.04265E+01
 -1       321 1.97466E+01
 -3
    1PSTEP                        41           1           1          
    1PGM                1.000000E+00                                  
    1PGK                2.305001E+10                                  
    1PHID                         -1                                  
    1PSUBC                         0                                  
    1PMODE                        11                                  
  100CL  111 24163.27076         321                     2   11MODAL      1
 -4  DISP        4    1
 -5  D1          1    2    1    0
 -5  D2          1    2    2    0
 -5  D3          1    2    3    0
 -5  ALL         1    2    0    0    1ALL
 -1         1 0.00000E+00 0.00000E+00 0.00000E+00
 -1         2 0.00000E+00 0.00000E+00 0.00000E+00
 -1         3-2.17151E+00-2.26297E+00 9.27956E-01
 -1         4-2.14221E+00-2.18644E+00 1.78911E+00
 -1         5 0.00000E+00 0.00000E+00 0.00000E+00
 -1         6 0.00000E+00 0.00000E+00 0.00000E+00
 -1         7-2.20306E+00-2.24688E+00 1.32117E-14
 -1         8-2.21882E+00-2.21472E+00 9.46417E-01
 -1         9 0.00000E+00 0.00000E+00 0.00000E+00
 -1        10-9.55693E-01-8.51613E-01 6.69145E-01
 -1        11-2.16087E+00-2.21806E+00 1.27739E+00
 -1        12-1.03965E+00-1.05473E+00 1.34034E+00
 -1        13 0.00000E+00 0.00000E+00 0.00000E+00
 -1        14 0.00000E+00 0.00000E+00 0.00000E+00
 -1        15-2.18049E+00-2.25905E+00 3.79701E-01
 -1        16-2.17397E+00-2.20470E+00 1.28894E+00
 -1        17 0.00000E+00 0.00000E+00 0.00000E+00
 -1        18-8.85392E-01-9.03007E-01 4.99600E-15
 -1        19-2.21498E+00-2.22386E+00 3.87255E-01
 -1        20-8.35001E-01-9.74706E-01 6.82457E-01
 -1        21-3.61786E+00-3.90202E+00-9.10777E-02
 -1        22-3.50233E+00-3.58086E+00-1.93219E-01
 -1        23-3.72468E+00-3.79878E+00 2.83107E-14
 -1        24-3.82591E+00-3.68984E+00-9.28897E-02
 -1        25-3.23660E+00-3.43153E+00 5.61642E-01
 -1        26-3.53046E+00-3.77618E+00-1.49226E-01
 -1        27-3.15786E+00-3.22685E+00 1.09234E+00
 -1        28-3.70639E+00-3.81931E+00-5.21379E-02
 -1        29-3.69820E+00-3.60495E+00-1.49929E-01
 -1        30-3.29452E+00-3.36007E+00 2.20310E-14
 -1        31-3.74481E+00-3.78012E+00-5.31752E-02
 -1        32-3.36460E+00-3.30099E+00 5.72815E-01
 -1        33-1.84726E+00-1.99768E+00-1.37344E+00
 -1        34-1.78516E+00-1.82541E+00-2.73135E+00
 -1        35-1.90431E+00-1.94220E+00 3.38063E-14
 -1        36-1.95871E+00-1.88401E+00-1.40076E+00
 -1        37-3.13100E+00-3.37427E+00-8.12168E-01
 -1        38-1.80172E+00-1.92733E+00-2.00893E+00
 -1        39-3.03201E+00-3.10011E+00-1.61794E+00
 -1        40-1.89158E+00-1.95500E+00-6.42027E-01
 -1        41-1.88742E+00-1.83988E+00-2.02395E+00
 -1        42-3.21767E+00-3.28168E+00 3.25850E-14
 -1        43-1.91686E+00-1.92921E+00-6.54800E-01
 -1        44-3.30845E+00-3.19329E+00-8.28325E-01
 -1        45 1.63776E+00 1.79656E+00-1.33862E+00
 -1        46 1.56992E+00 1.60636E+00-2.65915E+00
 -1        47 1.70081E+00 1.73465E+00 3.93019E-14
 -1        48 1.76151E+00 1.67034E+00-1.36525E+00
 -1        49-9.85800E-02-9.45756E-02-1.54984E+00
 -1        50 1.58755E+00 1.71926E+00-1.95367E+00
 -1        51-1.01227E-01-1.03031E-01-3.07453E+00
 -1        52 1.68708E+00 1.74878E+00-6.22604E-01
 -1        53 1.68317E+00 1.62169E+00-1.96840E+00
 -1        54-9.55136E-02-9.74138E-02 3.19189E-14
 -1        55 1.71466E+00 1.72064E+00-6.34990E-01
 -1        56-9.27308E-02-1.00541E-01-1.58067E+00
 -1        57 3.27741E+00 3.58107E+00 6.03881E-02
 -1        58 3.14888E+00 3.22139E+00 1.18220E-01
 -1        59 3.39669E+00 3.46427E+00 2.66454E-14
 -1        60 3.51122E+00 3.34262E+00 6.15895E-02
 -1        61 2.87918E+00 3.13596E+00-7.29951E-01
 -1        62 3.18202E+00 3.43565E+00 8.56306E-02
 -1        63 2.77040E+00 2.83401E+00-1.44827E+00
 -1        64 3.37153E+00 3.49045E+00 2.64028E-02
 -1        65 3.36380E+00 3.25015E+00 8.63453E-02
 -1        66 2.97441E+00 3.03359E+00 4.88498E-14
 -1        67 3.42237E+00 3.43860E+00 2.69281E-02
 -1        68 3.07479E+00 2.93646E+00-7.44473E-01
 -1        69 1.40576E+00 1.52898E+00 1.34773E+00
 -1        70 1.35415E+00 1.38505E+00 2.67250E+00
 -1        71 1.45347E+00 1.48239E+00 1.77636E-14
 -1        72 1.49916E+00 1.43373E+00 1.37454E+00
 -1        73 2.73153E+00 2.96900E+00 8.19343E-01
 -1        74 1.36750E+00 1.47086E+00 1.96002E+00
 -1        75 2.63151E+00 2.69167E+00 1.62172E+00
 -1        76 1.44348E+00 1.49278E+00 6.22226E-01
 -1        77 1.44023E+00 1.39663E+00 1.97498E+00
 -1        78 2.81891E+00 2.87499E+00 8.43769E-15
 -1        79 1.46366E+00 1.47220E+00 6.34605E-01
 -1        80 2.91108E+00 2.78587E+00 8.35643E-01
 -1        81-1.88312E+00-2.07792E+00 1.12314E+00
 -1        82-1.79899E+00-1.84125E+00 2.22388E+00
 -1        83-1.96161E+00-2.00063E+00 1.11022E-16
 -1        84-2.03739E+00-1.92059E+00 1.14548E+00
 -1        85-3.02419E-01-3.41306E-01 1.43875E+00
 -1        86-1.82069E+00-1.98185E+00 1.62858E+00
 -1        87-2.84904E-01-2.91935E-01 2.84745E+00
 -1        88-1.94461E+00-2.01825E+00 5.15276E-01
 -1        89-1.94002E+00-1.86008E+00 1.64115E+00
 -1        90-3.18223E-01-3.24554E-01 1.05749E-14
 -1        91-1.97888E+00-1.98330E+00 5.25527E-01
 -1        92-3.34649E-01-3.08435E-01 1.46737E+00
 -1        93-2.89535E+00-3.21617E+00-4.56479E-01
 -1        94-2.75544E+00-2.82103E+00-9.19106E-01
 -1        95-3.02652E+00-3.08673E+00-2.75335E-14
 -1        96-3.15344E+00-2.95295E+00-4.65561E-01
 -1        97-2.85562E+00-3.13964E+00 4.17436E-01
 -1        98-2.79148E+00-3.05556E+00-6.83622E-01
 -1        99-2.73273E+00-2.79668E+00 8.18809E-01
 -1       100-2.99791E+00-3.11640E+00-2.23798E-01
 -1       101-2.99069E+00-2.85230E+00-6.88309E-01
 -1       102-2.96431E+00-3.02328E+00-1.84297E-14
 -1       103-3.05561E+00-3.05755E+00-2.28250E-01
 -1       104-3.07839E+00-2.91243E+00 4.25740E-01
 -1       105-1.41332E-01-2.87640E-01-1.91951E+00
 -1       106-6.94011E-02-7.63844E-02-3.84116E+00
 -1       107-2.11234E-01-2.15437E-01-4.21885E-14
 -1       108-2.82029E-01-1.44144E-01-1.95770E+00
 -1       109-1.93265E+00-2.18565E+00-1.28830E+00
 -1       110-8.76650E-02-1.99601E-01-2.84415E+00
 -1       111-1.81848E+00-1.86353E+00-2.57299E+00
 -1       112-1.93547E-01-2.33652E-01-9.22221E-01
 -1       113-1.92956E-01-9.22199E-02-2.86439E+00
 -1       114-2.03594E+00-2.07644E+00-4.34097E-14
 -1       115-2.29094E-01-1.97398E-01-9.40568E-01
 -1       116-2.14302E+00-1.97110E+00-1.31393E+00
 -1       117 4.45856E+00 4.52515E+00-2.28059E+00
 -1       118 4.44959E+00 4.53819E+00-4.57445E+00
 -1       119 4.44860E+00 4.53710E+00-4.82947E-14
 -1       120 4.43688E+00 4.54726E+00-2.32596E+00
 -1       121 2.11785E+00 2.09764E+00-2.20889E+00
 -1       122 4.45248E+00 4.53580E+00-3.41872E+00
 -1       123 2.14648E+00 2.18694E+00-4.42791E+00
 -1       124 4.45685E+00 4.52989E+00-1.13060E+00
 -1       125 4.44734E+00 4.54110E+00-3.44178E+00
 -1       126 2.08712E+00 2.12864E+00-6.55032E-14
 -1       127 4.44152E+00 4.54552E+00-1.15309E+00
 -1       128 2.05672E+00 2.15999E+00-2.25283E+00
 -1       129 0.00000E+00 0.00000E+00 0.00000E+00
 -1       130 0.00000E+00 0.00000E+00 0.00000E+00
 -1       131-2.17151E+00-2.26297E+00-9.27956E-01
 -1       132-2.22440E+00-2.26704E+00 1.76213E-02
 -1       133 0.00000E+00 0.00000E+00 0.00000E+00
 -1       134 0.00000E+00 0.00000E+00 0.00000E+00
 -1       135-2.18049E+00-2.25905E+00-3.79701E-01
 -1       136-2.21666E+00-2.24648E+00 5.99260E-01
 -1       137 0.00000E+00 0.00000E+00 0.00000E+00
 -1       138-9.55693E-01-8.51613E-01-6.69145E-01
 -1       139-2.20348E+00-2.25992E+00-5.73984E-01
 -1       140-7.55192E-01-7.75820E-01 1.32013E-02
 -1       141-3.61786E+00-3.90202E+00 9.10777E-02
 -1       142-3.95173E+00-4.02150E+00-1.90306E-03
 -1       143-3.70639E+00-3.81931E+00 5.21379E-02
 -1       144-3.92201E+00-3.81665E+00-3.71250E-02
 -1       145-3.23660E+00-3.43153E+00-5.61642E-01
 -1       146-3.74637E+00-3.99563E+00 3.41785E-02
 -1       147-3.47068E+00-3.53356E+00 1.07587E-02
 -1       148-1.84726E+00-1.99768E+00 1.37344E+00
 -1       149-2.02543E+00-2.06099E+00-2.69017E-02
 -1       150-1.89158E+00-1.95500E+00 6.42027E-01
 -1       151-2.00736E+00-1.95539E+00-7.81932E-01
 -1       152-3.13100E+00-3.37427E+00 8.12168E-01
 -1       153-1.91952E+00-2.04493E+00 7.42211E-01
 -1       154-3.42658E+00-3.48698E+00-1.59354E-02
 -1       155 1.63776E+00 1.79656E+00 1.33862E+00
 -1       156 1.83436E+00 1.86564E+00-2.61906E-02
 -1       157 1.68708E+00 1.74878E+00 6.22604E-01
 -1       158 1.81520E+00 1.74874E+00-7.66993E-01
 -1       159-9.85800E-02-9.45756E-02 1.54984E+00
 -1       160 1.71713E+00 1.84871E+00 7.28363E-01
 -1       161-9.05897E-02-9.26015E-02-3.02818E-02
 -1       162 3.27741E+00 3.58107E+00-6.03881E-02
 -1       163 3.65003E+00 3.71278E+00 1.16437E-03
 -1       164 3.37153E+00 3.49045E+00-2.64028E-02
 -1       165 3.61394E+00 3.49020E+00 3.71295E-02
 -1       166 2.87918E+00 3.13596E+00 7.29951E-01
 -1       167 3.42685E+00 3.68091E+00-3.54357E-02
 -1       168 3.20136E+00 3.25656E+00-1.42643E-02
 -1       169 1.40576E+00 1.52898E+00-1.34773E+00
 -1       170 1.55515E+00 1.58213E+00 2.63221E-02
 -1       171 1.44348E+00 1.49278E+00-6.22226E-01
 -1       172 1.54052E+00 1.49280E+00 7.78912E-01
 -1       173 2.73153E+00 2.96900E+00-8.19343E-01
 -1       174 1.46557E+00 1.56920E+00-7.40156E-01
 -1       175 3.02798E+00 3.08041E+00 1.59727E-02
 -1       176-1.88312E+00-2.07792E+00-1.12314E+00
 -1       177-2.12749E+00-2.16334E+00 2.19035E-02
 -1       178-1.94461E+00-2.01825E+00-5.15276E-01
 -1       179-2.10404E+00-2.01788E+00 6.53992E-01
 -1       180-3.02419E-01-3.41306E-01-1.43875E+00
 -1       181-1.98162E+00-2.14267E+00-6.21787E-01
 -1       182-3.54103E-01-3.59785E-01 2.80452E-02
 -1       183-2.89535E+00-3.21617E+00 4.56479E-01
 -1       184-3.30232E+00-3.35725E+00-9.05249E-03
 -1       185-2.99791E+00-3.11640E+00 2.23798E-01
 -1       186-3.26385E+00-3.11524E+00-2.44680E-01
 -1       187-2.85562E+00-3.13964E+00-4.17436E-01
 -1       188-3.05966E+00-3.32340E+00 2.31168E-01
 -1       189-3.21939E+00-3.27385E+00 8.06464E-03
 -1       190-1.41332E-01-2.87640E-01 1.91951E+00
 -1       191-3.53792E-01-3.55228E-01-3.78325E-02
 -1       192-1.93547E-01-2.33652E-01 9.22221E-01
 -1       193-3.35371E-01-2.32116E-01-1.05545E+00
 -1       194-1.93265E+00-2.18565E+00 1.28830E+00
 -1       195-2.30344E-01-3.39237E-01 9.99230E-01
 -1       196-2.26896E+00-2.30522E+00-2.53419E-02
 -1       197 4.45856E+00 4.52515E+00 2.28059E+00
 -1       198 4.45377E+00 4.54229E+00-4.50548E-02
 -1       199 4.45685E+00 4.52989E+00 1.13060E+00
 -1       200 4.44651E+00 4.54292E+00-1.20437E+00
 -1       201 2.11785E+00 2.09764E+00 2.20889E+00
 -1       202 4.45434E+00 4.53499E+00 1.13680E+00
 -1       203 2.03276E+00 2.07544E+00-4.36116E-02
 -1       204 0.00000E+00 0.00000E+00 0.00000E+00
 -1       205-2.22440E+00-2.26704E+00-1.76213E-02
 -1       206 0.00000E+00 0.00000E+00 0.00000E+00
 -1       207-2.21882E+00-2.21472E+00-9.46417E-01
 -1       208 0.00000E+00 0.00000E+00 0.00000E+00
 -1       209-7.55192E-01-7.75820E-01-1.32013E-02
 -1       210-2.20348E+00-2.25992E+00 5.73984E-01
 -1       211 0.00000E+00 0.00000E+00 0.00000E+00
 -1       212-2.21666E+00-2.24648E+00-5.99260E-01
 -1       213 0.00000E+00 0.00000E+00 0.00000E+00
 -1       214-8.35001E-01-9.74706E-01-6.82457E-01
 -1       215-2.21498E+00-2.22386E+00-3.87255E-01
 -1       216-3.95173E+00-4.02150E+00 1.90306E-03
 -1       217-3.82591E+00-3.68984E+00 9.28897E-02
 -1       218-3.47068E+00-3.53356E+00-1.07587E-02
 -1       219-3.74637E+00-3.99563E+00-3.41785E-02
 -1       220-3.92201E+00-3.81665E+00 3.71250E-02
 -1       221-3.36460E+00-3.30099E+00-5.72815E-01
 -1       222-3.74481E+00-3.78012E+00 5.31752E-02
 -1       223-2.02543E+00-2.06099E+00 2.69017E-02
 -1       224-1.95871E+00-1.88401E+00 1.40076E+00
 -1       225-3.42658E+00-3.48698E+00 1.59354E-02
 -1       226-1.91952E+00-2.04493E+00-7.42211E-01
 -1       227-2.00736E+00-1.95539E+00 7.81932E-01
 -1       228-3.30845E+00-3.19329E+00 8.28325E-01
 -1       229-1.91686E+00-1.92921E+00 6.54800E-01
 -1       230 1.83436E+00 1.86564E+00 2.61906E-02
 -1       231 1.76151E+00 1.67034E+00 1.36525E+00
 -1       232-9.05897E-02-9.26015E-02 3.02818E-02
 -1       233 1.71713E+00 1.84871E+00-7.28363E-01
 -1       234 1.81520E+00 1.74874E+00 7.66993E-01
 -1       235-9.27308E-02-1.00541E-01 1.58067E+00
 -1       236 1.71466E+00 1.72064E+00 6.34990E-01
 -1       237 3.65003E+00 3.71278E+00-1.16437E-03
 -1       238 3.51122E+00 3.34262E+00-6.15895E-02
 -1       239 3.20136E+00 3.25656E+00 1.42643E-02
 -1       240 3.42685E+00 3.68091E+00 3.54357E-02
 -1       241 3.61394E+00 3.49020E+00-3.71295E-02
 -1       242 3.07479E+00 2.93646E+00 7.44473E-01
 -1       243 3.42237E+00 3.43860E+00-2.69281E-02
 -1       244 1.55515E+00 1.58213E+00-2.63221E-02
 -1       245 1.49916E+00 1.43373E+00-1.37454E+00
 -1       246 3.02798E+00 3.08041E+00-1.59727E-02
 -1       247 1.46557E+00 1.56920E+00 7.40156E-01
 -1       248 1.54052E+00 1.49280E+00-7.78912E-01
 -1       249 2.91108E+00 2.78587E+00-8.35643E-01
 -1       250 1.46366E+00 1.47220E+00-6.34605E-01
 -1       251-2.12749E+00-2.16334E+00-2.19035E-02
 -1       252-2.03739E+00-1.92059E+00-1.14548E+00
 -1       253-3.54103E-01-3.59785E-01-2.80452E-02
 -1       254-1.98162E+00-2.14267E+00 6.21787E-01
 -1       255-2.10404E+00-2.01788E+00-6.53992E-01
 -1       256-3.34649E-01-3.08435E-01-1.46737E+00
 -1       257-1.97888E+00-1.98330E+00-5.25527E-01
 -1       258-3.30232E+00-3.35725E+00 9.05249E-03
 -1       259-3.15344E+00-2.95295E+00 4.65561E-01
 -1       260-3.21939E+00-3.27385E+00-8.06464E-03
 -1       261-3.05966E+00-3.32340E+00-2.31168E-01
 -1       262-3.26385E+00-3.11524E+00 2.44680E-01
 -1       263-3.07839E+00-2.91243E+00-4.25740E-01
 -1       264-3.05561E+00-3.05755E+00 2.28250E-01
 -1       265-3.53792E-01-3.55228E-01 3.78325E-02
 -1       266-2.82029E-01-1.44144E-01 1.95770E+00
 -1       267-2.26896E+00-2.30522E+00 2.53419E-02
 -1       268-2.30344E-01-3.39237E-01-9.99230E-01
 -1       269-3.35371E-01-2.32116E-01 1.05545E+00
 -1       270-2.14302E+00-1.97110E+00 1.31393E+00
 -1       271-2.29094E-01-1.97398E-01 9.40568E-01
 -1       272 4.45377E+00 4.54229E+00 4.50548E-02
 -1       273 4.43688E+00 4.54726E+00 2.32596E+00
 -1       274 2.03276E+00 2.07544E+00 4.36116E-02
 -1       275 4.45434E+00 4.53499E+00-1.13680E+00
 -1       276 4.44651E+00 4.54292E+00 1.20437E+00
 -1       277 2.05672E+00 2.15999E+00 2.25283E+00
 -1       278 4.44152E+00 4.54552E+00 1.15309E+00
 -1       279 0.00000E+00 0.00000E+00 0.00000E+00
 -1       280-2.14221E+00-2.18644E+00-1.78911E+00
 -1       281 0.00000E+00 0.00000E+00 0.00000E+00
 -1       282-2.17397E+00-2.20470E+00-1.28894E+00
 -1       283 0.00000E+00 0.00000E+00 0.00000E+00
 -1       284-1.03965E+00-1.05473E+00-1.34034E+00
 -1       285-2.16087E+00-2.21806E+00-1.27739E+00
 -1       286-3.50233E+00-3.58086E+00 1.93219E-01
 -1       287-3.69820E+00-3.60495E+00 1.49929E-01
 -1       288-3.15786E+00-3.22685E+00-1.09234E+00
 -1       289-3.53046E+00-3.77618E+00 1.49226E-01
 -1       290-1.78516E+00-1.82541E+00 2.73135E+00
 -1       291-1.88742E+00-1.83988E+00 2.02395E+00
 -1       292-3.03201E+00-3.10011E+00 1.61794E+00
 -1       293-1.80172E+00-1.92733E+00 2.00893E+00
 -1       294 1.56992E+00 1.60636E+00 2.65915E+00
 -1       295 1.68317E+00 1.62169E+00 1.96840E+00
 -1       296-1.01227E-01-1.03031E-01 3.07453E+00
 -1       297 1.58755E+00 1.71926E+00 1.95367E+00
 -1       298 3.14888E+00 3.22139E+00-1.18220E-01
 -1       299 3.36380E+00 3.25015E+00-8.63453E-02
 -1       300 2.77040E+00 2.83401E+00 1.44827E+00
 -1       301 3.18202E+00 3.43565E+00-8.56306E-02
 -1       302 1.35415E+00 1.38505E+00-2.67250E+00
 -1       303 1.44023E+00 1.39663E+00-1.97498E+00
 -1       304 2.63151E+00 2.69167E+00-1.62172E+00
 -1       305 1.36750E+00 1.47086E+00-1.96002E+00
 -1       306-1.79899E+00-1.84125E+00-2.22388E+00
 -1       307-1.94002E+00-1.86008E+00-1.64115E+00
 -1       308-2.84904E-01-2.91935E-01-2.84745E+00
 -1       309-1.82069E+00-1.98185E+00-1.62858E+00
 -1       310-2.75544E+00-2.82103E+00 9.19106E-01
 -1       311-2.99069E+00-2.85230E+00 6.88309E-01
 -1       312-2.73273E+00-2.79668E+00-8.18809E-01
 -1       313-2.79148E+00-3.05556E+00 6.83622E-01
 -1       314-6.94011E-02-7.63844E-02 3.84116E+00
 -1       315-1.92956E-01-9.22199E-02 2.86439E+00
 -1       316-1.81848E+00-1.86353E+00 2.57299E+00
 -1       317-8.76650E-02-1.99601E-01 2.84415E+00
 -1       318 4.44959E+00 4.53819E+00 4.57445E+00
 -1       319 4.44734E+00 4.54110E+00 3.44178E+00
 -1       320 2.14648E+00 2.18694E+00 4.42791E+00
 -1       321 4.45248E+00 4.53580E+00 3.41872E+00
 -3
    1PSTEP                        42           1           1          
    1PGM                1.000000E+00                                  
    1PGK                2.305001E+10                                  
    1PHID                         -1                                  
    1PSUBC                         0                                  
    1PMODE                        11                                  
  100CL  111 24163.27076         321                     2   11MODAL      1
 -4  STRESS      6    1
 -5  SXX         1    4    1    1
 -5  SYY         1    4    2    2
 -5  SZZ         1    4    3    3
 -5  SXY         1    4    1    2
 -5  SYZ         1    4    2    3
 -5  SZX         1    4    3    1
 -1         1 4.32791E+13 4.32791E+13 1.00984E+14-1.95552E+04-1.64157E+13-1.62858E+13
 -1         2 2.11852E+13 2.11852E+13 4.94320E+13-2.76218E+05-9.23548E+12-1.33368E+13
 -1         3-7.55701E+11 5.07115E+11-3.63339E+12 7.19450E+11-1.77847E+13-1.79890E+12
 -1         4-7.77278E+11-7.93116E+11-8.85829E+12 1.45581E+12-1.47278E+12-1.36757E+12
 -1         5 2.16067E+13 2.16067E+13 5.04155E+13-2.70830E+05-1.36021E+13-9.05533E+12
 -1         6 4.39386E-02 5.32789E-02 1.67320E-01 5.93705E-03-1.10258E+13-1.08107E+13
 -1         7 1.87866E-01-4.41895E-02 4.57947E-01 3.03772E-01-1.46151E+13-1.43300E+13
 -1         8 5.17204E+11-7.70735E+11-3.70567E+12 7.05416E+11-1.83469E+12-1.74378E+13
 -1         9 3.12494E+13 3.12494E+13 7.29158E+13-1.86637E+07-1.27727E+13-1.48445E+13
 -1        10 3.15776E+12 1.41358E+12 2.08589E+13-1.30965E+12-1.05759E+13-4.00750E+12
 -1        11-8.44626E+10 1.50203E+12-5.62213E+12 8.33632E+11-9.50198E+12-1.38642E+12
 -1        12 4.12170E+12 4.16483E+12 4.00581E+13-2.38598E+12-4.19624E+12-4.12909E+12
 -1        13 3.14883E+13 3.14883E+13 7.34733E+13-1.85572E+07-1.50430E+13-1.26185E+13
 -1        14 9.57169E+12 9.57168E+12 2.23342E+13-6.93556E+06-1.01647E+13-1.20196E+13
 -1        15 1.26083E+12 9.67262E+11-1.18030E+12 1.09479E+11-1.57646E+13-8.20685E+12
 -1        16 1.48262E+12-1.14417E+11-5.67020E+12 8.22245E+11-1.44338E+12-9.26792E+12
 -1        17 9.76211E+12 9.76211E+12 2.27785E+13-6.80027E+06-1.22587E+13-9.96643E+12
 -1        18 1.30859E-01 1.72119E-01 3.64868E-01 2.25952E-01-9.90096E+12-9.70783E+12
 -1        19 9.86506E+11 1.28592E+12-1.20378E+12 1.07343E+11-8.37012E+12-1.54571E+13
 -1        20 1.44170E+12 3.22058E+12 2.12739E+13-1.28411E+12-4.08722E+12-1.03696E+13
 -1        21-7.05054E+10-9.97987E+11-3.38556E+13-3.31105E+11-2.28728E+12-6.48458E+11
 -1        22-1.13574E+12-1.12844E+12-6.70454E+13-2.51605E+11-6.03231E+11-5.85442E+11
 -1        23-8.36182E-03-1.89172E+00-3.42529E-01 2.09091E-01-1.89965E+12-1.86259E+12
 -1        24-1.01784E+12-7.19081E+10-3.45291E+13-3.24646E+11-6.61359E+11-2.24266E+12
 -1        25-2.13669E+12-8.60738E+11-2.22995E+13 3.83200E+11-7.84170E+12 3.26420E+11
 -1        26-3.37323E+11-1.35753E+12-4.91525E+13-5.63421E+10-1.51914E+12-5.47921E+11
 -1        27-2.89293E+12-2.92286E+12-4.33746E+13 7.93134E+11 1.60262E+11 1.75056E+11
 -1        28-3.09645E+11-3.69255E+11-1.56178E+13-2.19805E+09-1.98913E+12-1.34685E+12
 -1        29-1.36952E+12-3.39195E+11-4.95288E+13-4.93967E+10-5.60306E+11-1.48597E+12
 -1        30-1.20888E-02-9.61231E-01 2.75879E-02 3.89008E-01-6.27598E+12-6.15356E+12
 -1        31-3.76601E+11-3.15805E+11-1.59285E+13-2.15518E+09-1.37364E+12-1.95033E+12
 -1        32-8.77862E+11-2.17920E+12-2.27431E+13 3.75725E+11 3.32914E+11-7.68874E+12
 -1        33-6.76250E+11-7.66577E+11-1.83157E+13 3.86455E+09 1.13194E+13 2.68643E+12
 -1        34-1.33797E+12-1.34004E+12-3.60877E+13 5.51552E+10 2.72209E+12 2.64418E+12
 -1        35 6.63719E-01 3.00446E-01 1.50284E-01-1.46944E-01 9.40905E+12 9.22552E+12
 -1        36-7.81828E+11-6.89703E+11-1.86801E+13 3.78916E+09 2.73987E+12 1.10986E+13
 -1        37-2.18954E+11-9.32006E+10-2.70239E+13 2.43472E+10 3.71794E+12-4.92135E+10
 -1        38-7.99470E+11-9.74551E+11-2.65677E+13 7.17738E+10 6.99291E+12 2.44591E+12
 -1        39-4.23937E+11-4.35056E+11-5.35599E+13 2.17639E+11-1.29734E+10-2.41417E+10
 -1        40-2.15402E+11-1.98812E+11-8.50640E+12 3.49261E+10 9.96112E+12 6.16998E+12
 -1        41-9.85328E+11-8.12644E+11-2.67698E+13 7.23156E+10 2.49955E+12 6.83471E+12
 -1        42-1.81396E-01-6.73462E-01-1.38367E-01 1.42240E-01 2.87009E+12 2.81410E+12
 -1        43-2.02767E+11-2.19687E+11-8.67563E+12 3.42449E+10 6.29272E+12 9.76682E+12
 -1        44-9.50547E+10-2.23310E+11-2.75615E+13 2.38723E+10-5.01925E+10 3.64541E+12
 -1        45 4.60402E+11 6.20413E+11 1.97042E+13 3.66394E+10 1.17582E+13 2.76439E+12
 -1        46 1.03158E+12 1.03236E+12 3.90014E+13 4.44657E+08 2.80994E+12 2.73020E+12
 -1        47 8.13797E-01-1.78073E+00 5.08377E-01 1.47057E-01 9.76773E+12 9.57720E+12
 -1        48 6.32755E+11 4.69561E+11 2.00963E+13 3.59247E+10 2.81939E+12 1.15289E+13
 -1        49-1.04583E+11-4.47107E+10 6.86323E+11 2.58235E+10 9.28025E+12 1.59716E+11
 -1        50 5.96323E+11 8.35589E+11 2.88169E+13-3.60284E+10 7.23095E+12 2.52425E+12
 -1        51-1.30235E+11-1.31462E+11 1.43773E+12 3.45137E+10 2.23977E+11 1.91871E+11
 -1        52 1.97215E+11 1.87806E+11 9.29692E+12-2.37140E+10 1.03510E+13 6.37413E+12
 -1        53 8.43430E+11 6.05038E+11 2.90301E+13-3.71886E+10 2.57951E+12 7.06738E+12
 -1        54 8.94669E-01-4.14791E-01 2.65137E-01-3.41120E-02 7.17550E+12 7.03553E+12
 -1        55 1.91542E+11 2.01139E+11 9.48188E+12-2.32514E+10 6.50094E+12 1.01491E+13
 -1        56-4.56002E+10-1.06664E+11 6.99977E+11 2.53198E+10 1.62893E+11 9.09923E+12
 -1        57 7.95132E+11 1.19428E+12 3.74601E+13 1.06464E+11-9.59073E+11-2.27796E+11
 -1        58 1.91947E+12 1.91991E+12 7.41080E+13 3.51481E+10-2.33972E+11-2.27517E+11
 -1        59 6.59305E+00 1.32441E+01 4.48123E+00 1.15742E+00-7.98102E+11-7.82534E+11
 -1        60 1.21804E+12 8.10951E+11 3.82053E+13 1.04387E+11-2.32328E+11-9.40365E+11
 -1        61 5.51029E+11 1.99136E+11 2.96050E+13-1.07220E+11 4.34315E+12 6.54248E+10
 -1        62 1.08248E+12 1.63586E+12 5.47266E+13-5.39923E+10-5.92820E+11-2.09095E+11
 -1        63 8.02300E+11 8.15937E+11 5.88118E+13-3.12460E+11 9.89873E+10 8.41406E+10
 -1        64 3.96372E+11 3.86357E+11 1.76347E+13-4.06071E+10-8.45077E+11-5.21057E+11
 -1        65 1.65041E+12 1.09731E+12 5.51333E+13-5.69026E+10-2.13641E+11-5.79533E+11
 -1        66 3.18777E+00 5.35416E+00 2.29395E+00 4.25343E-01 3.35815E+12 3.29265E+12
 -1        67 3.94043E+11 4.04258E+11 1.79856E+13-3.98150E+10-5.31423E+11-8.28593E+11
 -1        68 2.03098E+11 5.61991E+11 3.01940E+13-1.05128E+11 6.67264E+10 4.25843E+12
 -1        69 3.59891E+11 5.22492E+11 1.51209E+13 4.15330E+10-1.30077E+13-3.06153E+12
 -1        70 8.48401E+11 8.48757E+11 2.98802E+13 9.56019E+09-3.11401E+12-3.02574E+12
 -1        71-3.64496E+00-2.73117E+00-1.54796E+00-4.12762E-01-1.08139E+13-1.06030E+13
 -1        72 5.32886E+11 3.67051E+11 1.54217E+13 4.07229E+10-3.12244E+12-1.27539E+13
 -1        73 4.95678E+11 1.83256E+11 2.72385E+13-9.38617E+10-5.59335E+12-9.10296E+10
 -1        74 4.81114E+11 7.10779E+11 2.20389E+13-2.62014E+10-8.01491E+12-2.79462E+12
 -1        75 7.29314E+11 7.41952E+11 5.40827E+13-2.87713E+11-1.33440E+11-1.14543E+11
 -1        76 1.70214E+11 1.64807E+11 7.08267E+12-1.82701E+10-1.14543E+13-7.06170E+12
 -1        77 7.17212E+11 4.87881E+11 2.22041E+13-2.73801E+10-2.85582E+12-7.83401E+12
 -1        78 4.09302E-01 2.87506E+00 8.00049E-01 5.97836E-01-4.33517E+12-4.25061E+12
 -1        79 1.68086E+11 1.73601E+11 7.22357E+12-1.79137E+10-7.20219E+12-1.12309E+13
 -1        80 1.86902E+11 5.05539E+11 2.77804E+13-9.20308E+10-9.28405E+10-5.48425E+12
 -1        81-4.58999E+11-6.80456E+11-2.42926E+13-6.12066E+10-1.16523E+13-2.73983E+12
 -1        82-1.08965E+12-1.08995E+12-4.81445E+13-2.11406E+10-2.79108E+12-2.71223E+12
 -1        83 3.16156E+00-3.33298E-01 9.23767E-02 6.49075E-01-9.68924E+12-9.50024E+12
 -1        84-6.93994E+11-4.68130E+11-2.47759E+13-6.00127E+10-2.79433E+12-1.14250E+13
 -1        85-5.86282E+10-1.53240E+10-4.73872E+12 1.15027E+10-9.87592E+12-1.59107E+11
 -1        86-6.17087E+11-9.29258E+11-3.56162E+13 3.01251E+10-7.18206E+12-2.50209E+12
 -1        87-8.42503E+10-8.57340E+10-9.47234E+12 3.32331E+10-2.32983E+11-1.99707E+11
 -1        88-2.25723E+11-2.19584E+11-1.15208E+13 2.26197E+10-1.02612E+13-6.32572E+12
 -1        89-9.37570E+11-6.25636E+11-3.58774E+13 3.17997E+10-2.55681E+12-7.02014E+12
 -1        90-1.12603E+00-2.92959E+00-1.59680E+00-3.56388E-02-7.65545E+12-7.50612E+12
 -1        91-2.23953E+11-2.30214E+11-1.17500E+13 2.21784E+10-6.45157E+12-1.00611E+13
 -1        92-1.56288E+10-5.97946E+10-4.83300E+12 1.12783E+10-1.62273E+11-9.68328E+12
 -1        93-6.38306E+11-1.01032E+12-4.01874E+13-1.08641E+11 1.05940E+12 2.14369E+11
 -1        94-1.58966E+12-1.58944E+12-7.97252E+13-4.22239E+10 2.03936E+11 1.97214E+11
 -1        95-2.59064E+00 1.14349E-01-1.31528E+00-4.58908E-02 8.57762E+11 8.41030E+11
 -1        96-1.03042E+12-6.51004E+11-4.09869E+13-1.06522E+11 2.18634E+11 1.03874E+12
 -1        97-5.27140E+11-1.73138E+11-3.33829E+13 1.00796E+11-4.20266E+12-8.05202E+10
 -1        98-8.93676E+11-1.39247E+12-5.90688E+13 3.89493E+10 6.09242E+11 1.89236E+11
 -1        99-7.87608E+11-8.01166E+11-6.64810E+13 3.07328E+11-1.13453E+11-9.94648E+10
 -1       100-3.47179E+11-3.46083E+11-1.91752E+13 3.02854E+10 9.18858E+11 5.47813E+11
 -1       101-1.40452E+12-9.05139E+11-5.94973E+13 4.17194E+10 1.93281E+11 5.94394E+11
 -1       102 5.12848E-01 9.33868E-01-1.22437E-01-7.21054E-02-3.27406E+12-3.21019E+12
 -1       103-3.52968E+11-3.54086E+11-1.95567E+13 2.96946E+10 5.58712E+11 9.00934E+11
 -1       104-1.76583E+11-5.37627E+11-3.40470E+13 9.88300E+10-8.21221E+10-4.12068E+12
 -1       105-1.13718E+10 1.75047E+10-1.95092E+13-9.46694E+09 9.65365E+12 2.29993E+12
 -1       106-5.88798E+10-5.83371E+10-3.95603E+13-5.32007E+10 2.33050E+12 2.26257E+12
 -1       107 9.18431E+00 5.86262E+00 3.82058E+00-4.11081E+00 7.98888E+12 7.83305E+12
 -1       108 1.78530E+10-1.15981E+10-1.98973E+13-9.28227E+09 2.34568E+12 9.46534E+12
 -1       109-4.02158E+11-1.10811E+11-3.08783E+13 8.69102E+10 4.38270E+12 7.68954E+10
 -1       110 1.48924E+10 4.12335E+10-2.94542E+13-3.44561E+10 5.94367E+12 2.10422E+12
 -1       111-5.55829E+11-5.65269E+11-6.17011E+13 2.10484E+11 1.12117E+11 9.44194E+10
 -1       112 5.57805E+10 6.42174E+10-9.66500E+12-8.27417E+09 8.49202E+12 5.22927E+12
 -1       113 3.90306E+10 1.30732E+10-2.96519E+13-3.43693E+10 2.15137E+12 5.80829E+12
 -1       114 2.99258E+00 3.80885E+00 1.76099E+00-2.07235E+00 3.34937E+12 3.28404E+12
 -1       115 6.54949E+10 5.68902E+10-9.85728E+12-8.11277E+09 5.33330E+12 8.32637E+12
 -1       116-1.13015E+11-4.10159E+11-3.14926E+13 8.52149E+10 7.84252E+10 4.29721E+12
 -1       117 8.12017E+11 1.03192E+12 2.11315E+12-1.39069E+11 3.14229E+12 1.00292E+12
 -1       118 1.48826E+12 1.49597E+12 3.98561E+12-8.33502E+10 1.06886E+12 1.04260E+12
 -1       119-6.90302E+00-1.75207E+01-5.73724E+00 4.95073E+00 2.49142E+12 2.44282E+12
 -1       120 1.05245E+12 8.28172E+11 2.15519E+12-1.36356E+11 1.02287E+12 3.08099E+12
 -1       121 3.70639E+11 3.74111E+11-7.35944E+12-1.08622E+11 4.73373E+12-5.48077E+10
 -1       122 1.11089E+12 1.65504E+12 2.57911E+12-2.09134E+11 2.24429E+12 8.49543E+11
 -1       123 4.92044E+11 4.98239E+11-1.51025E+13-1.53240E+11-2.72971E+10-4.04864E+10
 -1       124 7.22936E+11 4.64401E+11 5.51262E+11-1.82573E+11 2.57832E+12 1.88898E+12
 -1       125 1.65621E+12 1.12535E+12 2.61549E+12-2.09320E+11 8.66682E+11 2.19677E+12
 -1       126-2.73968E+00-1.38905E+01-5.11308E+00 9.19468E-01 3.55033E+12 3.48108E+12
 -1       127 4.73640E+11 7.37318E+11 5.62229E+11-1.79012E+11 1.92656E+12 2.52803E+12
 -1       128 3.81553E+11 3.78012E+11-7.50585E+12-1.06503E+11-5.58981E+10 4.64139E+12
 -1       129 4.26262E+11 4.26271E+11 9.94618E+11 1.92611E+02-6.75392E+12-6.43184E+12
 -1       130-2.11852E+13-2.11852E+13-4.94320E+13 2.76217E+05-9.23548E+12-1.33368E+13
 -1       131 7.55701E+11-5.07115E+11 3.63339E+12-7.19450E+11-1.77847E+13-1.79890E+12
 -1       132 7.96320E+11-8.11787E+11-8.72474E+10-1.43386E+10-5.35514E+12-5.32717E+12
 -1       133 1.24370E+13 1.24370E+13 2.90196E+13-5.22599E+06-1.02240E+13-7.70433E+12
 -1       134-9.57169E+12-9.57168E+12-2.23342E+13 6.93556E+06-1.01647E+13-1.20196E+13
 -1       135-1.26083E+12-9.67262E+11 1.18030E+12-1.09479E+11-1.57646E+13-8.20685E+12
 -1       136-9.70973E+11-1.52165E+12-2.49606E+12 5.69903E+11-2.90540E+12-1.17900E+13
 -1       137-1.18191E+13-1.18190E+13-2.75778E+13 5.59258E+06-7.95441E+12-9.92967E+12
 -1       138-3.15776E+12-1.41358E+12-2.08589E+13 1.30965E+12-1.05759E+13-4.00750E+12
 -1       139 1.51969E+12 1.00037E+12 2.38484E+12-5.86212E+11-1.19749E+13-2.87753E+12
 -1       140-2.14869E+12 2.23031E+12 3.94542E+11 2.35001E+10-3.44986E+12-3.36786E+12
 -1       141 7.05054E+10 9.97987E+11 3.38556E+13 3.31105E+11-2.28728E+12-6.48458E+11
 -1       142-3.81846E+11 3.59546E+11-6.60346E+11 2.47812E+09-9.08952E+11-8.97244E+11
 -1       143 3.09645E+11 3.69255E+11 1.56178E+13 2.19805E+09-1.98913E+12-1.34685E+12
 -1       144-6.22032E+11-9.83769E+10-1.95904E+13-3.52065E+11-6.34198E+11-1.66893E+12
 -1       145 2.13669E+12 8.60738E+11 2.22995E+13-3.83200E+11-7.84170E+12 3.26420E+11
 -1       146 9.17137E+10 5.95172E+11 1.86185E+13 3.53107E+11-1.69853E+12-6.23283E+11
 -1       147 1.49069E+12-1.54797E+12-4.27207E+11-7.81177E+09-7.49381E+11-7.52683E+11
 -1       148 6.76250E+11 7.66577E+11 1.83157E+13-3.86455E+09 1.13194E+13 2.68643E+12
 -1       149 9.16781E+10-1.18054E+11-3.55436E+11-5.43236E+08 3.98141E+12 3.92856E+12
 -1       150 2.15402E+11 1.98812E+11 8.50640E+12-3.49261E+10 9.96112E+12 6.16998E+12
 -1       151-5.56761E+11-6.76725E+11-1.05195E+13-2.82122E+10 2.74752E+12 7.96279E+12
 -1       152 2.18954E+11 9.32006E+10 2.70239E+13-2.43472E+10 3.71794E+12-4.92135E+10
 -1       153 6.60847E+11 5.37458E+11 9.99416E+12 2.67930E+10 8.09898E+12 2.69881E+12
 -1       154 5.60230E+11-5.68690E+11-5.27524E+11-2.14358E+09 5.66784E+11 5.67149E+11
 -1       155-4.60402E+11-6.20413E+11-1.97042E+13-3.66394E+10 1.17582E+13 2.76439E+12
 -1       156-2.93958E+10 4.97241E+10 3.84134E+11-4.37953E+06 4.07576E+12 4.02119E+12
 -1       157-1.97215E+11-1.87806E+11-9.29692E+12 2.37140E+10 1.03510E+13 6.37413E+12
 -1       158 4.06317E+11 4.48348E+11 1.11038E+13 5.92574E+10 2.83062E+12 8.23301E+12
 -1       159 1.04583E+11 4.47107E+10-6.86323E+11-2.58235E+10 9.28025E+12 1.59716E+11
 -1       160-4.36515E+11-3.89780E+11-1.05341E+13-5.85363E+10 8.37384E+12 2.78035E+12
 -1       161 6.09648E+10-6.35423E+10 1.41605E+10-3.39934E+08 1.63194E+12 1.62784E+12
 -1       162-7.95132E+11-1.19428E+12-3.74601E+13-1.06464E+11-9.59073E+11-2.27796E+11
 -1       163-2.96838E+09 4.07833E+10 7.29907E+11-3.46182E+08-3.29966E+11-3.25420E+11
 -1       164-3.96372E+11-3.86357E+11-1.76347E+13 4.06071E+10-8.45077E+11-5.21057E+11
 -1       165 7.54362E+11 7.63395E+11 2.11857E+13 1.48285E+11-2.32878E+11-6.68750E+11
 -1       166-5.51029E+11-1.99136E+11-2.96050E+13 1.07220E+11 4.34315E+12 6.54248E+10
 -1       167-7.41926E+11-7.21995E+11-2.01036E+13-1.47193E+11-6.80297E+11-2.28715E+11
 -1       168-6.84300E+11 7.00239E+11 5.79251E+11 3.07749E+09 7.54598E+11 7.52795E+11
 -1       169-3.59891E+11-5.22492E+11-1.51209E+13-4.15330E+10-1.30077E+13-3.06153E+12
 -1       170-9.71701E+09 2.64327E+10 2.94297E+11-9.41605E+07-4.51160E+12-4.45113E+12
 -1       171-1.70214E+11-1.64807E+11-7.08267E+12 1.82701E+10-1.14543E+13-7.06170E+12
 -1       172 3.33607E+11 3.48294E+11 8.60294E+12 6.00999E+10-3.13507E+12-9.10542E+12
 -1       173-4.95678E+11-1.83256E+11-2.72385E+13 9.38617E+10-5.59335E+12-9.10296E+10
 -1       174-3.38750E+11-3.19543E+11-8.16718E+12-5.95722E+10-9.26152E+12-3.07942E+12
 -1       175-6.34305E+11 6.48796E+11 5.32673E+11 2.83376E+09-9.60526E+11-9.58083E+11
 -1       176 4.58999E+11 6.80456E+11 2.42926E+13 6.12066E+10-1.16523E+13-2.73983E+12
 -1       177 4.58835E+09-2.60558E+10-4.74187E+11 2.08219E+08-4.03007E+12-3.97587E+12
 -1       178 2.25723E+11 2.19584E+11 1.15208E+13-2.26197E+10-1.02612E+13-6.32572E+12
 -1       179-4.31158E+11-4.40095E+11-1.36106E+13-8.53167E+10-2.80268E+12-8.15005E+12
 -1       180 5.86282E+10 1.53240E+10 4.73872E+12-1.15027E+10-9.87592E+12-1.59107E+11
 -1       181 4.27855E+11 4.12771E+11 1.29064E+13 8.47068E+10-8.28993E+12-2.75285E+12
 -1       182 7.44820E+10-7.61562E+10-9.32953E+10-3.27321E+08-1.69139E+12-1.68713E+12
 -1       183 6.38306E+11 1.01032E+12 4.01874E+13 1.08641E+11 1.05940E+12 2.14369E+11
 -1       184-2.64459E+10-4.86582E+09-7.85232E+11 4.15873E+08 3.43218E+11 3.39267E+11
 -1       185 3.47179E+11 3.46083E+11 1.91752E+13-3.02854E+10 9.18858E+11 5.47813E+11
 -1       186-6.25514E+11-5.90827E+11-2.23383E+13-1.41022E+11 2.07261E+11 7.47872E+11
 -1       187 5.27140E+11 1.73138E+11 3.33829E+13-1.00796E+11-4.20266E+12-8.05202E+10
 -1       188 5.73110E+11 5.97966E+11 2.11705E+13 1.40228E+11 7.59727E+11 2.03494E+11
 -1       189 6.80461E+11-6.96109E+11-6.54787E+11-3.02695E+09-7.11155E+11-7.09058E+11
 -1       190 1.13718E+10-1.75047E+10 1.95092E+13 9.46694E+09 9.65365E+12 2.29993E+12
 -1       191-2.81260E+10 2.69715E+10-3.89639E+11 5.23987E+08 3.47092E+12 3.42568E+12
 -1       192-5.57805E+10-6.42174E+10 9.66500E+12 8.27417E+09 8.49202E+12 5.22927E+12
 -1       193-1.11436E+11-9.22134E+10-1.03262E+13-4.06271E+09 2.41450E+12 6.81467E+12
 -1       194 4.02158E+11 1.10811E+11 3.08783E+13-8.69102E+10 4.38270E+12 7.68954E+10
 -1       195 9.24888E+10 1.12227E+11 9.74401E+12 4.74059E+09 6.93042E+12 2.37259E+12
 -1       196 4.73718E+11-4.84759E+11-6.07709E+11-2.07311E+09 8.99447E+11 8.97412E+11
 -1       197-8.12017E+11-1.03192E+12-2.11315E+12 1.39069E+11 3.14229E+12 1.00292E+12
 -1       198-3.76380E+11 4.05772E+11 3.92552E+10 8.20935E+08 1.34354E+12 1.32274E+12
 -1       199-7.22936E+11-4.64401E+11-5.51262E+11 1.82573E+11 2.57832E+12 1.88898E+12
 -1       200 7.58243E+10 7.44909E+11 1.87229E+12 1.15125E+10 8.78486E+11 2.39043E+12
 -1       201-3.70639E+11-3.74111E+11 7.35944E+12 1.08622E+11 4.73373E+12-5.48077E+10
 -1       202-7.22884E+11-4.32109E+10-1.82113E+12-7.39106E+09 2.43417E+12 8.61583E+11
 -1       203-3.09630E+11 3.19384E+11-1.48748E+11 1.50929E+09 6.69227E+11 6.69894E+11
 -1       204-4.26262E+11-4.26271E+11-9.94618E+11-1.92602E+02-6.75392E+12-6.43184E+12
 -1       205-7.96320E+11 8.11787E+11 8.72474E+10 1.43386E+10-5.35514E+12-5.32717E+12
 -1       206-2.16067E+13-2.16067E+13-5.04155E+13 2.70830E+05-1.36021E+13-9.05533E+12
 -1       207-5.17204E+11 7.70735E+11 3.70567E+12-7.05416E+11-1.83469E+12-1.74378E+13
 -1       208 1.18191E+13 1.18190E+13 2.75778E+13-5.59258E+06-7.95441E+12-9.92967E+12
 -1       209 2.14869E+12-2.23031E+12-3.94542E+11-2.35001E+10-3.44986E+12-3.36786E+12
 -1       210-1.51969E+12-1.00037E+12-2.38484E+12 5.86212E+11-1.19749E+13-2.87753E+12
 -1       211-1.24370E+13-1.24370E+13-2.90196E+13 5.22599E+06-1.02240E+13-7.70433E+12
 -1       212 9.70973E+11 1.52165E+12 2.49606E+12-5.69903E+11-2.90540E+12-1.17900E+13
 -1       213-9.76211E+12-9.76211E+12-2.27785E+13 6.80027E+06-1.22587E+13-9.96643E+12
 -1       214-1.44170E+12-3.22058E+12-2.12739E+13 1.28411E+12-4.08722E+12-1.03696E+13
 -1       215-9.86506E+11-1.28592E+12 1.20378E+12-1.07343E+11-8.37012E+12-1.54571E+13
 -1       216 3.81846E+11-3.59546E+11 6.60346E+11-2.47812E+09-9.08952E+11-8.97244E+11
 -1       217 1.01784E+12 7.19081E+10 3.45291E+13 3.24646E+11-6.61359E+11-2.24266E+12
 -1       218-1.49069E+12 1.54797E+12 4.27207E+11 7.81177E+09-7.49381E+11-7.52683E+11
 -1       219-9.17137E+10-5.95172E+11-1.86185E+13-3.53107E+11-1.69853E+12-6.23283E+11
 -1       220 6.22032E+11 9.83769E+10 1.95904E+13 3.52065E+11-6.34198E+11-1.66893E+12
 -1       221 8.77862E+11 2.17920E+12 2.27431E+13-3.75725E+11 3.32914E+11-7.68874E+12
 -1       222 3.76601E+11 3.15805E+11 1.59285E+13 2.15518E+09-1.37364E+12-1.95033E+12
 -1       223-9.16781E+10 1.18054E+11 3.55436E+11 5.43236E+08 3.98141E+12 3.92856E+12
 -1       224 7.81828E+11 6.89703E+11 1.86801E+13-3.78916E+09 2.73987E+12 1.10986E+13
 -1       225-5.60230E+11 5.68690E+11 5.27524E+11 2.14358E+09 5.66784E+11 5.67149E+11
 -1       226-6.60847E+11-5.37458E+11-9.99416E+12-2.67930E+10 8.09898E+12 2.69881E+12
 -1       227 5.56761E+11 6.76725E+11 1.05195E+13 2.82122E+10 2.74752E+12 7.96279E+12
 -1       228 9.50547E+10 2.23310E+11 2.75615E+13-2.38723E+10-5.01925E+10 3.64541E+12
 -1       229 2.02767E+11 2.19687E+11 8.67563E+12-3.42449E+10 6.29272E+12 9.76682E+12
 -1       230 2.93958E+10-4.97241E+10-3.84134E+11 4.37953E+06 4.07576E+12 4.02119E+12
 -1       231-6.32755E+11-4.69561E+11-2.00963E+13-3.59247E+10 2.81939E+12 1.15289E+13
 -1       232-6.09648E+10 6.35423E+10-1.41605E+10 3.39934E+08 1.63194E+12 1.62784E+12
 -1       233 4.36515E+11 3.89780E+11 1.05341E+13 5.85363E+10 8.37384E+12 2.78035E+12
 -1       234-4.06317E+11-4.48348E+11-1.11038E+13-5.92574E+10 2.83062E+12 8.23301E+12
 -1       235 4.56002E+10 1.06664E+11-6.99977E+11-2.53198E+10 1.62893E+11 9.09923E+12
 -1       236-1.91542E+11-2.01139E+11-9.48188E+12 2.32514E+10 6.50094E+12 1.01491E+13
 -1       237 2.96838E+09-4.07833E+10-7.29907E+11 3.46182E+08-3.29966E+11-3.25420E+11
 -1       238-1.21804E+12-8.10951E+11-3.82053E+13-1.04387E+11-2.32328E+11-9.40365E+11
 -1       239 6.84300E+11-7.00239E+11-5.79251E+11-3.07749E+09 7.54598E+11 7.52795E+11
 -1       240 7.41926E+11 7.21995E+11 2.01036E+13 1.47193E+11-6.80297E+11-2.28715E+11
 -1       241-7.54362E+11-7.63395E+11-2.11857E+13-1.48285E+11-2.32878E+11-6.68750E+11
 -1       242-2.03098E+11-5.61991E+11-3.01940E+13 1.05128E+11 6.67264E+10 4.25843E+12
 -1       243-3.94043E+11-4.04258E+11-1.79856E+13 3.98150E+10-5.31423E+11-8.28593E+11
 -1       244 9.71701E+09-2.64327E+10-2.94297E+11 9.41605E+07-4.51160E+12-4.45113E+12
 -1       245-5.32886E+11-3.67051E+11-1.54217E+13-4.07229E+10-3.12244E+12-1.27539E+13
 -1       246 6.34305E+11-6.48796E+11-5.32673E+11-2.83376E+09-9.60526E+11-9.58083E+11
 -1       247 3.38750E+11 3.19543E+11 8.16718E+12 5.95722E+10-9.26152E+12-3.07942E+12
 -1       248-3.33607E+11-3.48294E+11-8.60294E+12-6.00999E+10-3.13507E+12-9.10542E+12
 -1       249-1.86902E+11-5.05539E+11-2.77804E+13 9.20308E+10-9.28405E+10-5.48425E+12
 -1       250-1.68086E+11-1.73601E+11-7.22357E+12 1.79137E+10-7.20219E+12-1.12309E+13
 -1       251-4.58835E+09 2.60558E+10 4.74187E+11-2.08219E+08-4.03007E+12-3.97587E+12
 -1       252 6.93994E+11 4.68130E+11 2.47759E+13 6.00127E+10-2.79433E+12-1.14250E+13
 -1       253-7.44820E+10 7.61562E+10 9.32953E+10 3.27321E+08-1.69139E+12-1.68713E+12
 -1       254-4.27855E+11-4.12771E+11-1.29064E+13-8.47068E+10-8.28993E+12-2.75285E+12
 -1       255 4.31158E+11 4.40095E+11 1.36106E+13 8.53167E+10-2.80268E+12-8.15005E+12
 -1       256 1.56288E+10 5.97946E+10 4.83300E+12-1.12783E+10-1.62273E+11-9.68328E+12
 -1       257 2.23953E+11 2.30214E+11 1.17500E+13-2.21784E+10-6.45157E+12-1.00611E+13
 -1       258 2.64459E+10 4.86582E+09 7.85232E+11-4.15873E+08 3.43218E+11 3.39267E+11
 -1       259 1.03042E+12 6.51004E+11 4.09869E+13 1.06522E+11 2.18634E+11 1.03874E+12
 -1       260-6.80461E+11 6.96109E+11 6.54787E+11 3.02695E+09-7.11155E+11-7.09058E+11
 -1       261-5.73110E+11-5.97966E+11-2.11705E+13-1.40228E+11 7.59727E+11 2.03494E+11
 -1       262 6.25514E+11 5.90827E+11 2.23383E+13 1.41022E+11 2.07261E+11 7.47872E+11
 -1       263 1.76583E+11 5.37627E+11 3.40470E+13-9.88300E+10-8.21221E+10-4.12068E+12
 -1       264 3.52968E+11 3.54086E+11 1.95567E+13-2.96946E+10 5.58712E+11 9.00934E+11
 -1       265 2.81260E+10-2.69715E+10 3.89639E+11-5.23987E+08 3.47092E+12 3.42568E+12
 -1       266-1.78530E+10 1.15981E+10 1.98973E+13 9.28227E+09 2.34568E+12 9.46534E+12
 -1       267-4.73718E+11 4.84759E+11 6.07709E+11 2.07311E+09 8.99447E+11 8.97412E+11
 -1       268-9.24888E+10-1.12227E+11-9.74401E+12-4.74059E+09 6.93042E+12 2.37259E+12
 -1       269 1.11436E+11 9.22134E+10 1.03262E+13 4.06271E+09 2.41450E+12 6.81467E+12
 -1       270 1.13015E+11 4.10159E+11 3.14926E+13-8.52149E+10 7.84252E+10 4.29721E+12
 -1       271-6.54949E+10-5.68902E+10 9.85728E+12 8.11277E+09 5.33330E+12 8.32637E+12
 -1       272 3.76380E+11-4.05772E+11-3.92552E+10-8.20935E+08 1.34354E+12 1.32274E+12
 -1       273-1.05245E+12-8.28172E+11-2.15519E+12 1.36356E+11 1.02287E+12 3.08099E+12
 -1       274 3.09630E+11-3.19384E+11 1.48748E+11-1.50929E+09 6.69227E+11 6.69894E+11
 -1       275 7.22884E+11 4.32109E+10 1.82113E+12 7.39106E+09 2.43417E+12 8.61583E+11
 -1       276-7.58243E+10-7.44909E+11-1.87229E+12-1.15125E+10 8.78486E+11 2.39043E+12
 -1       277-3.81553E+11-3.78012E+11 7.50585E+12 1.06503E+11-5.58981E+10 4.64139E+12
 -1       278-4.73640E+11-7.37318E+11-5.62229E+11 1.79012E+11 1.92656E+12 2.52803E+12
 -1       279-4.32791E+13-4.32791E+13-1.00984E+14 1.95552E+04-1.64157E+13-1.62858E+13
 -1       280 7.77278E+11 7.93116E+11 8.85829E+12-1.45581E+12-1.47278E+12-1.36757E+12
 -1       281-3.14883E+13-3.14883E+13-7.34733E+13 1.85572E+07-1.50430E+13-1.26185E+13
 -1       282-1.48262E+12 1.14417E+11 5.67020E+12-8.22245E+11-1.44338E+12-9.26792E+12
 -1       283-3.12494E+13-3.12494E+13-7.29158E+13 1.86637E+07-1.27727E+13-1.48445E+13
 -1       284-4.12170E+12-4.16483E+12-4.00581E+13 2.38598E+12-4.19624E+12-4.12909E+12
 -1       285 8.44626E+10-1.50203E+12 5.62213E+12-8.33632E+11-9.50198E+12-1.38642E+12
 -1       286 1.13574E+12 1.12844E+12 6.70454E+13 2.51605E+11-6.03231E+11-5.85442E+11
 -1       287 1.36952E+12 3.39195E+11 4.95288E+13 4.93967E+10-5.60306E+11-1.48597E+12
 -1       288 2.89293E+12 2.92286E+12 4.33746E+13-7.93134E+11 1.60262E+11 1.75056E+11
 -1       289 3.37323E+11 1.35753E+12 4.91525E+13 5.63421E+10-1.51914E+12-5.47921E+11
 -1       290 1.33797E+12 1.34004E+12 3.60877E+13-5.51552E+10 2.72209E+12 2.64418E+12
 -1       291 9.85328E+11 8.12644E+11 2.67698E+13-7.23156E+10 2.49955E+12 6.83471E+12
 -1       292 4.23937E+11 4.35056E+11 5.35599E+13-2.17639E+11-1.29734E+10-2.41417E+10
 -1       293 7.99470E+11 9.74551E+11 2.65677E+13-7.17738E+10 6.99291E+12 2.44591E+12
 -1       294-1.03158E+12-1.03236E+12-3.90014E+13-4.44657E+08 2.80994E+12 2.73020E+12
 -1       295-8.43430E+11-6.05038E+11-2.90301E+13 3.71886E+10 2.57951E+12 7.06738E+12
 -1       296 1.30235E+11 1.31462E+11-1.43773E+12-3.45137E+10 2.23977E+11 1.91871E+11
 -1       297-5.96323E+11-8.35589E+11-2.88169E+13 3.60284E+10 7.23095E+12 2.52425E+12
 -1       298-1.91947E+12-1.91991E+12-7.41080E+13-3.51481E+10-2.33972E+11-2.27517E+11
 -1       299-1.65041E+12-1.09731E+12-5.51333E+13 5.69026E+10-2.13641E+11-5.79533E+11
 -1       300-8.02300E+11-8.15937E+11-5.88118E+13 3.12460E+11 9.89873E+10 8.41406E+10
 -1       301-1.08248E+12-1.63586E+12-5.47266E+13 5.39923E+10-5.92820E+11-2.09095E+11
 -1       302-8.48401E+11-8.48757E+11-2.98802E+13-9.56019E+09-3.11401E+12-3.02574E+12
 -1       303-7.17212E+11-4.87881E+11-2.22041E+13 2.73801E+10-2.85582E+12-7.83401E+12
 -1       304-7.29314E+11-7.41952E+11-5.40827E+13 2.87713E+11-1.33440E+11-1.14543E+11
 -1       305-4.81114E+11-7.10779E+11-2.20389E+13 2.62014E+10-8.01491E+12-2.79462E+12
 -1       306 1.08965E+12 1.08995E+12 4.81445E+13 2.11406E+10-2.79108E+12-2.71223E+12
 -1       307 9.37570E+11 6.25636E+11 3.58774E+13-3.17997E+10-2.55681E+12-7.02014E+12
 -1       308 8.42503E+10 8.57340E+10 9.47234E+12-3.32331E+10-2.32983E+11-1.99707E+11
 -1       309 6.17087E+11 9.29258E+11 3.56162E+13-3.01251E+10-7.18206E+12-2.50209E+12
 -1       310 1.58966E+12 1.58944E+12 7.97252E+13 4.22239E+10 2.03936E+11 1.97214E+11
 -1       311 1.40452E+12 9.05139E+11 5.94973E+13-4.17194E+10 1.93281E+11 5.94394E+11
 -1       312 7.87608E+11 8.01166E+11 6.64810E+13-3.07328E+11-1.13453E+11-9.94648E+10
 -1       313 8.93676E+11 1.39247E+12 5.90688E+13-3.89493E+10 6.09242E+11 1.89236E+11
 -1       314 5.88798E+10 5.83371E+10 3.95603E+13 5.32007E+10 2.33050E+12 2.26257E+12
 -1       315-3.90306E+10-1.30732E+10 2.96519E+13 3.43693E+10 2.15137E+12 5.80829E+12
 -1       316 5.55829E+11 5.65269E+11 6.17011E+13-2.10484E+11 1.12117E+11 9.44194E+10
 -1       317-1.48924E+10-4.12335E+10 2.94542E+13 3.44561E+10 5.94367E+12 2.10422E+12
 -1       318-1.48826E+12-1.49597E+12-3.98561E+12 8.33502E+10 1.06886E+12 1.04260E+12
 -1       319-1.65621E+12-1.12535E+12-2.61549E+12 2.09320E+11 8.66682E+11 2.19677E+12
 -1       320-4.92044E+11-4.98239E+11 1.51025E+13 1.53240E+11-2.72971E+10-4.04864E+10
 -1       321-1.11089E+12-1.65504E+12-2.57911E+12 2.09134E+11 2.24429E+12 8.49543E+11
 -3
    1PSTEP                        43           1           1          
    1PGM                1.000000E+00                                  
    1PGK                2.305001E+10                                  
    1PHID                         -1                                  
    1PSUBC                         0                                  
    1PMODE                        11                                  
  100CL  111 24163.27076         321                     2   11MODAL      1
 -4  TOSTRAIN    6    1
 -5  EXX         1    4    1    1
 -5  EYY         1    4    2    2
 -5  EZZ         1    4    3    3
 -5  EXY         1    4    1    2
 -5  EYZ         1    4    2    3
 -5  EZX         1    4    3    1
 -1         1 5.03281E-04 5.03875E-04 3.57223E+02-1.21056E-07-1.01621E+02-1.00817E+02
 -1         2 2.59190E-04 2.35356E-04 1.74861E+02-1.70992E-06-5.71720E+01-8.25611E+01
 -1         3 8.67527E-01 8.68496E+00-1.69467E+01 4.45374E+00-1.10096E+02-1.11360E+01
 -1         4 1.00864E+01 9.98836E+00-3.99389E+01 9.01216E+00-9.11722E+00-8.46591E+00
 -1         5 2.40038E-04 2.64347E-04 1.78340E+02-1.67656E-06-8.42036E+01-5.60568E+01
 -1         6-1.04770E-13-5.10564E-14 6.57403E-13 3.69866E-14-6.82550E+01-6.69236E+01
 -1         7 3.03091E-13-1.13554E-12 1.97937E-12 1.88172E-12-9.04746E+01-8.87098E+01
 -1         8 8.85774E+00 8.84785E-01-1.72839E+01 4.36686E+00-1.13576E+01-1.07948E+02
 -1         9-7.29954E-04-7.94904E-04 2.57934E+02-1.15537E-04-7.90690E+01-9.18944E+01
 -1        10-1.67809E+01-2.75782E+01 9.27978E+01-8.10737E+00-6.54697E+01-2.48083E+01
 -1        11 5.48364E+00 1.53048E+01-2.87971E+01 5.16058E+00-5.88218E+01-8.58259E+00
 -1        12-4.35485E+01-4.32815E+01 1.78915E+02-1.47703E+01-2.59767E+01-2.55610E+01
 -1        13-7.96799E-04-7.29059E-04 2.59906E+02-1.14878E-04-9.31232E+01-7.81143E+01
 -1        14-3.48556E-04-3.84806E-04 7.90056E+01-4.29344E-05-6.29244E+01-7.44069E+01
 -1        15 6.30831E+00 4.49097E+00-8.80347E+00 6.77726E-01-9.75902E+01-5.08043E+01
 -1        16 1.53238E+01 5.43741E+00-2.89555E+01 5.09009E+00-8.93518E+00-5.73728E+01
 -1        17-3.92461E-04-3.55491E-04 8.05774E+01-4.20969E-05-7.58872E+01-6.16969E+01
 -1        18-1.45661E-13 1.09690E-13 1.30981E-12 1.39888E-12-6.12917E+01-6.00961E+01
 -1        19 4.58031E+00 6.43381E+00-8.97861E+00 6.64506E-01-5.18150E+01-9.56866E+01
 -1        20-2.81269E+01-1.71148E+01 9.46439E+01-7.94923E+00-2.53019E+01-6.41926E+01
 -1        21 4.94551E+01 4.37135E+01-1.59691E+02-2.04970E+00-1.41594E+01-4.01427E+00
 -1        22 9.19829E+01 9.20281E+01-3.16029E+02-1.55756E+00-3.73429E+00-3.62416E+00
 -1        23 3.15126E-12-8.50975E-12 1.09246E-12 1.29430E-12-1.17597E+01-1.15303E+01
 -1        24 4.45832E+01 5.04390E+01-1.62868E+02-2.00971E+00-4.09413E+00-1.38832E+01
 -1        25 2.29113E+01 3.08100E+01-1.01906E+02 2.37219E+00-4.85439E+01 2.02069E+00
 -1        26 7.05509E+01 6.42353E+01-2.31638E+02-3.48784E-01-9.40419E+00-3.39189E+00
 -1        27 5.23634E+01 5.21781E+01-1.98238E+02 4.90988E+00 9.92096E-01 1.08368E+00
 -1        28 2.13641E+01 2.09951E+01-7.34004E+01-1.36070E-02-1.23137E+01-8.33762E+00
 -1        29 6.47185E+01 7.10967E+01-2.33410E+02-3.05789E-01-3.46856E+00-9.19887E+00
 -1        30 1.27748E-12-4.60082E-12 1.52278E-12 2.40818E-12-3.88513E+01-3.80935E+01
 -1        31 2.14128E+01 2.17891E+01-7.48607E+01-1.33416E-02-8.50350E+00-1.20735E+01
 -1        32 3.14230E+01 2.33671E+01-1.03933E+02 2.32592E+00 2.06089E+00-4.75970E+01
 -1        33 2.40402E+01 2.34811E+01-8.51566E+01 2.39234E-02 7.00724E+01 1.66303E+01
 -1        34 4.70969E+01 4.70841E+01-1.68020E+02 3.41437E-01 1.68510E+01 1.63687E+01
 -1        35 2.51921E-12 2.68952E-13-6.58362E-13-9.09661E-13 5.82465E+01 5.71103E+01
 -1        36 2.39482E+01 2.45185E+01-8.68508E+01 2.34567E-02 1.69611E+01 6.87055E+01
 -1        37 3.76960E+01 3.84745E+01-1.28239E+02 1.50721E-01 2.30158E+01-3.04655E-01
 -1        38 3.55391E+01 3.44553E+01-1.23979E+02 4.44314E-01 4.32894E+01 1.51414E+01
 -1        39 7.51169E+01 7.50480E+01-2.53820E+02 1.34729E+00-8.03113E-02-1.49449E-01
 -1        40 1.14103E+01 1.15130E+01-3.99149E+01 2.16209E-01 6.16641E+01 3.81951E+01
 -1        41 3.47114E+01 3.57804E+01-1.24907E+02 4.47668E-01 1.54734E+01 4.23101E+01
 -1        42 2.93321E-13-2.75013E-12 5.67990E-13 8.80615E-13 1.77672E+01 1.74206E+01
 -1        43 1.17420E+01 1.16373E+01-4.07090E+01 2.11992E-01 3.89550E+01 6.04613E+01
 -1        44 3.92399E+01 3.84460E+01-1.30790E+02 1.47781E-01-3.10716E-01 2.25668E+01
 -1        45-2.68428E+01-2.58523E+01 9.22857E+01 2.26815E-01 7.27890E+01 1.71129E+01
 -1        46-5.22788E+01-5.22740E+01 1.82773E+02 2.75264E-03 1.73949E+01 1.69012E+01
 -1        47 5.69117E-12-1.03676E-11 3.79741E-12 9.10466E-13 6.04669E+01 5.92874E+01
 -1        48-2.63666E+01-2.73769E+01 9.41217E+01 2.22391E-01 1.74534E+01 7.13692E+01
 -1        49-1.41461E+00-1.04397E+00 3.48148E+00 1.59860E-01 5.74492E+01 9.88716E-01
 -1        50-3.95211E+01-3.80400E+01 1.35178E+02-2.23033E-01 4.47630E+01 1.56263E+01
 -1        51-2.48626E+00-2.49386E+00 7.22018E+00 2.13657E-01 1.38653E+00 1.18777E+00
 -1        52-1.26105E+01-1.26687E+01 4.37210E+01-1.46801E-01 6.40778E+01 3.94589E+01
 -1        53-3.83195E+01-3.97953E+01 1.36169E+02-2.30215E-01 1.59684E+01 4.37505E+01
 -1        54 4.47498E-12-3.63254E-12 5.75762E-13-2.11157E-13 4.44198E+01 4.35533E+01
 -1        55-1.29208E+01-1.28614E+01 4.45908E+01-1.43937E-01 4.02439E+01 6.28279E+01
 -1        56-1.06473E+00-1.44275E+00 3.55074E+00 1.56741E-01 1.00839E+00 5.63286E+01
 -1        57-5.14342E+01-4.89633E+01 1.75539E+02 6.59063E-01-5.93712E+00-1.41017E+00
 -1        58-9.94710E+01-9.94683E+01 3.47411E+02 2.17583E-01-1.44840E+00-1.40844E+00
 -1        59 6.07003E-12 4.72483E-11-7.00373E-12 7.16488E-12-4.94063E+00-4.84426E+00
 -1        60-4.99374E+01-5.24574E+01 1.79032E+02 6.46207E-01-1.43822E+00-5.82131E+00
 -1        61-3.99535E+01-4.21318E+01 1.39905E+02-6.63740E-01 2.68862E+01 4.05010E-01
 -1        62-7.53631E+01-7.19374E+01 2.56720E+02-3.34238E-01-3.66984E+00-1.29440E+00
 -1        63-8.13620E+01-8.12776E+01 2.77744E+02-1.93428E+00 6.12779E-01 5.20871E-01
 -1        64-2.38569E+01-2.39189E+01 8.28567E+01-2.51377E-01-5.23143E+00-3.22559E+00
 -1        65-7.24703E+01-7.58943E+01 2.58614E+02-3.52254E-01-1.32254E+00-3.58759E+00
 -1        66 4.25515E-12 1.76650E-11-1.28164E-12 2.63309E-12 2.07886E+01 2.03831E+01
 -1        67-2.43948E+01-2.43315E+01 8.45051E+01-2.46474E-01-3.28976E+00-5.12938E+00
 -1        68-4.29700E+01-4.07483E+01 1.42688E+02-6.50793E-01 4.13068E-01 2.63617E+01
 -1        69-2.06339E+01-1.96273E+01 7.07435E+01 2.57109E-01-8.05236E+01-1.89523E+01
 -1        70-3.98585E+01-3.98563E+01 1.39862E+02 5.91821E-02-1.92772E+01-1.87308E+01
 -1        71-1.12416E-11-5.58514E-12 1.73217E-12-2.55522E-12-6.69432E+01-6.56374E+01
 -1        72-2.00178E+01-2.10444E+01 7.21509E+01 2.52094E-01-1.93294E+01-7.89529E+01
 -1        73-3.68135E+01-3.87476E+01 1.28737E+02-5.81048E-01-3.46255E+01-5.63516E-01
 -1        74-3.02085E+01-2.87868E+01 1.03244E+02-1.62199E-01-4.96161E+01-1.73000E+01
 -1        75-7.48480E+01-7.47697E+01 2.55435E+02-1.78108E+00-8.26057E-01-7.09076E-01
 -1        76-9.54299E+00-9.57647E+00 3.32484E+01-1.13101E-01-7.09078E+01-4.37153E+01
 -1        77-2.90018E+01-3.04214E+01 1.04012E+02-1.69496E-01-1.76789E+01-4.84962E+01
 -1        78-3.29747E-12 1.19648E-11-8.89733E-13 3.70107E-12-2.68368E+01-2.63133E+01
 -1        79-9.76698E+00-9.73284E+00 3.39099E+01-1.10894E-01-4.45850E+01-6.95247E+01
 -1        80-3.95184E+01-3.75459E+01 1.31298E+02-5.69714E-01-5.74727E-01-3.39501E+01
 -1        81 3.34901E+01 3.21192E+01-1.14051E+02-3.78898E-01-7.21331E+01-1.69608E+01
 -1        82 6.51462E+01 6.51443E+01-2.26146E+02-1.30871E-01-1.72781E+01-1.67900E+01
 -1        83 1.54040E-11-6.23657E-12-3.60734E-12 4.01834E-12-5.99810E+01-5.88110E+01
 -1        84 3.27582E+01 3.41564E+01-1.16320E+02-3.71507E-01-1.72983E+01-7.07260E+01
 -1        85 6.51231E+00 6.78039E+00-2.24597E+01 7.12073E-02-6.11367E+01-9.84949E-01
 -1        86 4.92694E+01 4.73369E+01-1.67392E+02 1.86489E-01-4.44604E+01-1.54892E+01
 -1        87 1.32532E+01 1.32440E+01-4.48635E+01 2.05729E-01-1.44227E+00-1.23628E+00
 -1        88 1.56971E+01 1.57351E+01-5.42246E+01 1.40026E-01-6.35219E+01-3.91592E+01
 -1        89 4.76826E+01 4.96136E+01-1.68612E+02 1.96856E-01-1.58279E+01-4.34580E+01
 -1        90 1.10256E-12-1.00607E-11-1.80456E-12-2.20619E-13-4.73909E+01-4.64664E+01
 -1        91 1.60481E+01 1.60093E+01-5.53034E+01 1.37295E-01-3.99383E+01-6.22828E+01
 -1        92 6.91528E+00 6.64187E+00-2.29065E+01 6.98183E-02-1.00454E+00-5.99441E+01
 -1        93 5.58143E+01 5.35113E+01-1.89013E+02-6.72540E-01 6.55822E+00 1.32705E+00
 -1        94 1.08594E+02 1.08595E+02-3.75102E+02-2.61386E-01 1.26246E+00 1.22085E+00
 -1        95-1.06201E-11 6.12810E-12-2.73381E-12-2.83773E-13 5.30995E+00 5.20638E+00
 -1        96 5.45759E+01 5.69247E+01-1.92774E+02-6.59421E-01 1.35345E+00 6.43029E+00
 -1        97 4.54269E+01 4.76184E+01-1.57966E+02 6.23976E-01-2.60164E+01-4.98458E-01
 -1        98 8.21176E+01 7.90299E+01-2.78014E+02 2.41115E-01 3.77150E+00 1.17146E+00
 -1        99 9.23669E+01 9.22830E+01-3.14307E+02 1.90251E+00-7.02327E-01-6.15735E-01
 -1       100 2.62344E+01 2.62411E+01-9.03203E+01 1.87481E-01 5.68817E+00 3.39122E+00
 -1       101 7.96010E+01 8.26924E+01-2.80021E+02 2.58263E-01 1.19650E+00 3.67958E+00
 -1       102 1.28475E-12 3.89044E-12-2.65388E-12-4.46310E-13-2.02680E+01-1.98726E+01
 -1       103 2.67632E+01 2.67563E+01-9.21171E+01 1.83824E-01 3.45869E+00 5.57721E+00
 -1       104 4.85657E+01 4.63307E+01-1.61108E+02 6.11805E-01-5.08375E-01-2.55090E+01
 -1       105 2.77911E+01 2.79699E+01-9.29096E+01-5.86049E-02 5.97607E+01 1.42376E+01
 -1       106 5.63177E+01 5.63211E+01-1.88215E+02-3.29338E-01 1.44269E+01 1.40064E+01
 -1       107 2.98960E-11 9.34112E-12-3.28933E-12-2.54479E-11 4.94550E+01 4.84903E+01
 -1       108 2.85263E+01 2.83440E+01-9.47580E+01-5.74617E-02 1.45209E+01 5.85949E+01
 -1       109 4.23552E+01 4.41588E+01-1.46307E+02 5.38016E-01 2.71310E+01 4.76019E-01
 -1       110 4.20894E+01 4.22525E+01-1.40338E+02-2.13299E-01 3.67942E+01 1.30261E+01
 -1       111 8.63052E+01 8.62467E+01-2.92213E+02 1.30300E+00 6.94058E-01 5.84501E-01
 -1       112 1.39810E+01 1.40333E+01-4.61952E+01-5.12210E-02 5.25697E+01 3.23717E+01
 -1       113 4.25270E+01 4.23663E+01-1.41274E+02-2.12763E-01 1.33180E+01 3.59561E+01
 -1       114 6.29619E-12 1.13469E-11-1.33760E-12-1.28288E-11 2.07342E+01 2.03298E+01
 -1       115 1.43124E+01 1.42592E+01-4.71143E+01-5.02219E-02 3.30157E+01 5.15442E+01
 -1       116 4.50373E+01 4.31978E+01-1.49218E+02 5.27521E-01 4.85489E-01 2.66018E+01
 -1       117-6.26207E-01 7.35095E-01 7.42842E+00-8.60902E-01 1.94523E+01 6.20853E+00
 -1       118-7.43845E-01-6.96157E-01 1.47159E+01-5.15977E-01 6.61677E+00 6.45420E+00
 -1       119 3.54827E-13-6.53761E-11 7.57421E-12 3.06473E-11 1.54231E+01 1.51222E+01
 -1       120 7.49720E-01-6.38665E-01 7.57620E+00-8.44109E-01 6.33205E+00 1.90728E+01
 -1       121 1.17440E+01 1.17655E+01-3.61089E+01-6.72422E-01 2.93040E+01-3.39286E-01
 -1       122-7.58836E-01 2.60972E+00 8.33014E+00-1.29464E+00 1.38932E+01 5.25908E+00
 -1       123 2.32063E+01 2.32446E+01-7.33312E+01-9.48626E-01-1.68982E-01-2.50630E-01
 -1       124 1.99160E+00 3.91150E-01 9.28862E-01-1.13021E+00 1.59611E+01 1.16937E+01
 -1       125 2.54269E+00-7.43638E-01 8.48104E+00-1.29579E+00 5.36517E+00 1.35990E+01
 -1       126 1.41015E-11-5.49260E-11-5.92609E-13 5.69182E-12 2.19782E+01 2.15495E+01
 -1       127 3.98931E-01 2.03123E+00 9.47342E-01-1.10817E+00 1.19263E+01 1.56497E+01
 -1       128 1.19995E+01 1.19776E+01-3.68272E+01-6.59305E-01-3.46036E-01 2.87324E+01
 -1       129-2.51832E-05 3.51029E-05 3.51837E+00 1.19235E-09-4.18100E+01-3.98161E+01
 -1       130-2.59190E-04-2.35356E-04-1.74861E+02 1.70992E-06-5.71720E+01-8.25611E+01
 -1       131-8.67527E-01-8.68496E+00 1.69467E+01-4.45374E+00-1.10096E+02-1.11360E+01
 -1       132 5.07634E+00-4.87861E+00-3.93368E-01-8.87629E-02-3.31509E+01-3.29777E+01
 -1       133-1.04046E-04 3.82374E-05 1.02655E+02-3.23513E-05-6.32917E+01-4.76935E+01
 -1       134 3.48556E-04 3.84806E-04-7.90056E+01 4.29344E-05-6.29244E+01-7.44069E+01
 -1       135-6.30831E+00-4.49097E+00 8.80347E+00-6.77726E-01-9.75902E+01-5.08043E+01
 -1       136 1.11590E+00-2.29305E+00-8.32511E+00 3.52797E+00-1.79858E+01-7.29859E+01
 -1       137-5.26076E-05 8.83694E-05-9.75542E+01 3.46208E-05-4.92416E+01-6.14694E+01
 -1       138 1.67809E+01 2.75782E+01-9.27978E+01 8.10737E+00-6.54697E+01-2.48083E+01
 -1       139 2.40061E+00-8.14236E-01 7.75629E+00-3.62893E+00-7.41304E+01-1.78133E+01
 -1       140-1.39816E+01 1.31264E+01 1.76218E+00 1.45477E-01-2.13563E+01-2.08487E+01
 -1       141-4.94551E+01-4.37135E+01 1.59691E+02 2.04970E+00-1.41594E+01-4.01427E+00
 -1       142-1.38860E+00 3.20097E+00-3.11265E+00 1.53407E-02-5.62684E+00-5.55437E+00
 -1       143-2.13641E+01-2.09951E+01 7.34004E+01 1.36070E-02-1.23137E+01-8.33762E+00
 -1       144 2.51648E+01 2.84065E+01-9.22586E+01-2.17945E+00-3.92599E+00-1.03315E+01
 -1       145-2.29113E+01-3.08100E+01 1.01906E+02-2.37219E+00-4.85439E+01 2.02069E+00
 -1       146-2.70114E+01-2.38947E+01 8.76782E+01 2.18590E+00-1.05147E+01-3.85842E+00
 -1       147 9.92018E+00-8.89053E+00-1.95249E+00-4.83586E-02-4.63902E+00-4.65947E+00
 -1       148-2.40402E+01-2.34811E+01 8.51566E+01-2.39234E-02 7.00724E+01 1.66303E+01
 -1       149 1.11298E+00-1.85367E-01-1.65487E+00-3.36289E-03 2.46468E+01 2.43196E+01
 -1       150-1.14103E+01-1.15130E+01 3.99149E+01-2.16209E-01 6.16641E+01 3.81951E+01
 -1       151 1.33433E+01 1.26007E+01-4.83307E+01-1.74647E-01 1.70084E+01 4.92935E+01
 -1       152-3.76960E+01-3.84745E+01 1.28239E+02-1.50721E-01 2.30158E+01-3.04655E-01
 -1       153-1.18983E+01-1.26621E+01 4.58793E+01 1.65861E-01 5.01366E+01 1.67069E+01
 -1       154 4.23378E+00-2.75477E+00-2.49993E+00-1.32698E-02 3.50866E+00 3.51092E+00
 -1       155 2.68428E+01 2.58523E+01-9.22857E+01-2.26815E-01 7.27890E+01 1.71129E+01
 -1       156-7.59778E-01-2.69988E-01 1.80017E+00-2.71114E-05 2.52309E+01 2.48931E+01
 -1       157 1.26105E+01 1.26687E+01-4.37210E+01 1.46801E-01 6.40778E+01 3.94589E+01
 -1       158-1.45683E+01-1.43081E+01 5.16545E+01 3.66832E-01 1.75229E+01 5.09662E+01
 -1       159 1.41461E+00 1.04397E+00-3.48148E+00-1.59860E-01 5.74492E+01 9.88716E-01
 -1       160 1.35269E+01 1.38162E+01-4.89819E+01-3.62367E-01 5.18380E+01 1.72117E+01
 -1       161 3.60854E-01-4.09904E-01 7.11132E-02-2.10435E-03 1.01025E+01 1.00771E+01
 -1       162 5.14342E+01 4.89633E+01-1.75539E+02-6.59063E-01-5.93712E+00-1.41017E+00
 -1       163-1.11512E+00-8.44278E-01 3.42173E+00-2.14303E-03-2.04264E+00-2.01451E+00
 -1       164 2.38569E+01 2.39189E+01-8.28567E+01 2.51377E-01-5.23143E+00-3.22559E+00
 -1       165-2.77636E+01-2.77077E+01 9.87160E+01 9.17953E-01-1.44163E+00-4.13988E+00
 -1       166 3.99535E+01 4.21318E+01-1.39905E+02 6.63740E-01 2.68862E+01 4.05010E-01
 -1       167 2.62179E+01 2.63413E+01-9.36403E+01-9.11192E-01-4.21136E+00-1.41585E+00
 -1       168-5.08642E+00 3.48454E+00 2.73557E+00 1.90511E-02 4.67132E+00 4.66016E+00
 -1       169 2.06339E+01 1.96273E+01-7.07435E+01-2.57109E-01-8.05236E+01-1.89523E+01
 -1       170-5.04457E-01-2.80673E-01 1.37754E+00-5.82898E-04-2.79290E+01-2.75546E+01
 -1       171 9.54299E+00 9.57647E+00-3.32484E+01 1.13101E-01-7.09078E+01-4.37153E+01
 -1       172-1.11989E+01-1.11080E+01 3.99923E+01 3.72047E-01-1.94076E+01-5.63669E+01
 -1       173 3.68135E+01 3.87476E+01-1.28737E+02 5.81048E-01-3.46255E+01-5.63516E-01
 -1       174 1.05108E+01 1.06297E+01-3.79509E+01-3.68780E-01-5.73332E+01-1.90631E+01
 -1       175-4.70831E+00 3.23469E+00 2.51584E+00 1.75423E-02-5.94611E+00-5.93099E+00
 -1       176-3.34901E+01-3.21192E+01 1.14051E+02 3.78898E-01-7.21331E+01-1.69608E+01
 -1       177 7.36481E-01 5.46780E-01-2.22736E+00 1.28898E-03-2.49480E+01-2.46125E+01
 -1       178-1.56971E+01-1.57351E+01 5.42246E+01-1.40026E-01-6.35219E+01-3.91592E+01
 -1       179 1.80193E+01 1.79640E+01-6.35677E+01-5.28151E-01-1.73499E+01-5.04527E+01
 -1       180-6.51231E+00-6.78039E+00 2.24597E+01-7.12073E-02-6.11367E+01-9.84949E-01
 -1       181-1.69900E+01-1.70834E+01 6.02584E+01 5.24375E-01-5.13186E+01-1.70415E+01
 -1       182 5.96750E-01-3.35773E-01-4.41871E-01-2.02627E-03-1.04705E+01-1.04441E+01
 -1       183-5.58143E+01-5.35113E+01 1.89013E+02 6.72540E-01 6.55822E+00 1.32705E+00
 -1       184 1.00278E+00 1.13637E+00-3.69447E+00 2.57445E-03 2.12468E+00 2.10023E+00
 -1       185-2.62344E+01-2.62411E+01 9.03203E+01-1.87481E-01 5.68817E+00 3.39122E+00
 -1       186 2.97773E+01 2.99920E+01-1.04635E+02-8.72994E-01 1.28305E+00 4.62968E+00
 -1       187-4.54269E+01-4.76184E+01 1.57966E+02-6.23976E-01-2.60164E+01-4.98458E-01
 -1       188-2.83688E+01-2.82149E+01 9.91392E+01 8.68076E-01 4.70307E+00 1.25972E+00
 -1       189 5.17014E+00-3.35148E+00-3.09568E+00-1.87383E-02-4.40239E+00-4.38940E+00
 -1       190-2.77911E+01-2.79699E+01 9.29096E+01 5.86049E-02 5.97607E+01 1.42376E+01
 -1       191 3.84163E-01 7.25243E-01-1.85377E+00 3.24373E-03 2.14867E+01 2.12066E+01
 -1       192-1.39810E+01-1.40333E+01 4.61952E+01 5.12210E-02 5.25697E+01 3.23717E+01
 -1       193 1.43527E+01 1.44717E+01-4.88813E+01-2.51501E-02 1.49469E+01 4.21860E+01
 -1       194-4.23552E+01-4.41588E+01 1.46307E+02-5.38016E-01 2.71310E+01 4.76019E-01
 -1       195-1.36399E+01-1.35177E+01 4.61076E+01 2.93465E-02 4.29026E+01 1.46875E+01
 -1       196 3.81647E+00-2.11696E+00-2.87808E+00-1.28335E-02 5.56800E+00 5.55541E+00
 -1       197 6.26207E-01-7.35095E-01-7.42842E+00 8.60902E-01 1.94523E+01 6.20853E+00
 -1       198-2.42804E+00 2.41386E+00 1.44940E-01 5.08198E-03 8.31714E+00 8.18840E+00
 -1       199-1.99160E+00-3.91150E-01-9.28862E-01 1.13021E+00 1.59611E+01 1.16937E+01
 -1       200-3.37779E+00 7.64166E-01 7.74319E+00 7.12680E-02 5.43825E+00 1.47979E+01
 -1       201-1.17440E+01-1.17655E+01 3.61089E+01 6.72422E-01 2.93040E+01-3.39286E-01
 -1       202-7.78964E-01 3.42854E+00-7.57761E+00-4.57542E-02 1.50687E+01 5.33361E+00
 -1       203-1.71820E+00 2.17570E+00-7.22256E-01 9.34324E-03 4.14283E+00 4.14697E+00
 -1       204 2.51832E-05-3.51029E-05-3.51837E+00-1.19229E-09-4.18100E+01-3.98161E+01
 -1       205-5.07634E+00 4.87861E+00 3.93368E-01 8.87629E-02-3.31509E+01-3.29777E+01
 -1       206-2.40038E-04-2.64347E-04-1.78340E+02 1.67656E-06-8.42036E+01-5.60568E+01
 -1       207-8.85774E+00-8.84785E-01 1.72839E+01-4.36686E+00-1.13576E+01-1.07948E+02
 -1       208 5.26076E-05-8.83694E-05 9.75542E+01-3.46208E-05-4.92416E+01-6.14694E+01
 -1       209 1.39816E+01-1.31264E+01-1.76218E+00-1.45477E-01-2.13563E+01-2.08487E+01
 -1       210-2.40061E+00 8.14236E-01-7.75629E+00 3.62893E+00-7.41304E+01-1.78133E+01
 -1       211 1.04046E-04-3.82374E-05-1.02655E+02 3.23513E-05-6.32917E+01-4.76935E+01
 -1       212-1.11590E+00 2.29305E+00 8.32511E+00-3.52797E+00-1.79858E+01-7.29859E+01
 -1       213 3.92461E-04 3.55491E-04-8.05774E+01 4.20969E-05-7.58872E+01-6.16969E+01
 -1       214 2.81269E+01 1.71148E+01-9.46439E+01 7.94923E+00-2.53019E+01-6.41926E+01
 -1       215-4.58031E+00-6.43381E+00 8.97861E+00-6.64506E-01-5.18150E+01-9.56866E+01
 -1       216 1.38860E+00-3.20097E+00 3.11265E+00-1.53407E-02-5.62684E+00-5.55437E+00
 -1       217-4.45832E+01-5.04390E+01 1.62868E+02 2.00971E+00-4.09413E+00-1.38832E+01
 -1       218-9.92018E+00 8.89053E+00 1.95249E+00 4.83586E-02-4.63902E+00-4.65947E+00
 -1       219 2.70114E+01 2.38947E+01-8.76782E+01-2.18590E+00-1.05147E+01-3.85842E+00
 -1       220-2.51648E+01-2.84065E+01 9.22586E+01 2.17945E+00-3.92599E+00-1.03315E+01
 -1       221-3.14230E+01-2.33671E+01 1.03933E+02-2.32592E+00 2.06089E+00-4.75970E+01
 -1       222-2.14128E+01-2.17891E+01 7.48607E+01 1.33416E-02-8.50350E+00-1.20735E+01
 -1       223-1.11298E+00 1.85367E-01 1.65487E+00 3.36289E-03 2.46468E+01 2.43196E+01
 -1       224-2.39482E+01-2.45185E+01 8.68508E+01-2.34567E-02 1.69611E+01 6.87055E+01
 -1       225-4.23378E+00 2.75477E+00 2.49993E+00 1.32698E-02 3.50866E+00 3.51092E+00
 -1       226 1.18983E+01 1.26621E+01-4.58793E+01-1.65861E-01 5.01366E+01 1.67069E+01
 -1       227-1.33433E+01-1.26007E+01 4.83307E+01 1.74647E-01 1.70084E+01 4.92935E+01
 -1       228-3.92399E+01-3.84460E+01 1.30790E+02-1.47781E-01-3.10716E-01 2.25668E+01
 -1       229-1.17420E+01-1.16373E+01 4.07090E+01-2.11992E-01 3.89550E+01 6.04613E+01
 -1       230 7.59778E-01 2.69988E-01-1.80017E+00 2.71114E-05 2.52309E+01 2.48931E+01
 -1       231 2.63666E+01 2.73769E+01-9.41217E+01-2.22391E-01 1.74534E+01 7.13692E+01
 -1       232-3.60854E-01 4.09904E-01-7.11132E-02 2.10435E-03 1.01025E+01 1.00771E+01
 -1       233-1.35269E+01-1.38162E+01 4.89819E+01 3.62367E-01 5.18380E+01 1.72117E+01
 -1       234 1.45683E+01 1.43081E+01-5.16545E+01-3.66832E-01 1.75229E+01 5.09662E+01
 -1       235 1.06473E+00 1.44275E+00-3.55074E+00-1.56741E-01 1.00839E+00 5.63286E+01
 -1       236 1.29208E+01 1.28614E+01-4.45908E+01 1.43937E-01 4.02439E+01 6.28279E+01
 -1       237 1.11512E+00 8.44278E-01-3.42173E+00 2.14303E-03-2.04264E+00-2.01451E+00
 -1       238 4.99374E+01 5.24574E+01-1.79032E+02-6.46207E-01-1.43822E+00-5.82131E+00
 -1       239 5.08642E+00-3.48454E+00-2.73557E+00-1.90511E-02 4.67132E+00 4.66016E+00
 -1       240-2.62179E+01-2.63413E+01 9.36403E+01 9.11192E-01-4.21136E+00-1.41585E+00
 -1       241 2.77636E+01 2.77077E+01-9.87160E+01-9.17953E-01-1.44163E+00-4.13988E+00
 -1       242 4.29700E+01 4.07483E+01-1.42688E+02 6.50793E-01 4.13068E-01 2.63617E+01
 -1       243 2.43948E+01 2.43315E+01-8.45051E+01 2.46474E-01-3.28976E+00-5.12938E+00
 -1       244 5.04457E-01 2.80673E-01-1.37754E+00 5.82898E-04-2.79290E+01-2.75546E+01
 -1       245 2.00178E+01 2.10444E+01-7.21509E+01-2.52094E-01-1.93294E+01-7.89529E+01
 -1       246 4.70831E+00-3.23469E+00-2.51584E+00-1.75423E-02-5.94611E+00-5.93099E+00
 -1       247-1.05108E+01-1.06297E+01 3.79509E+01 3.68780E-01-5.73332E+01-1.90631E+01
 -1       248 1.11989E+01 1.11080E+01-3.99923E+01-3.72047E-01-1.94076E+01-5.63669E+01
 -1       249 3.95184E+01 3.75459E+01-1.31298E+02 5.69714E-01-5.74727E-01-3.39501E+01
 -1       250 9.76698E+00 9.73284E+00-3.39099E+01 1.10894E-01-4.45850E+01-6.95247E+01
 -1       251-7.36481E-01-5.46780E-01 2.22736E+00-1.28898E-03-2.49480E+01-2.46125E+01
 -1       252-3.27582E+01-3.41564E+01 1.16320E+02 3.71507E-01-1.72983E+01-7.07260E+01
 -1       253-5.96750E-01 3.35773E-01 4.41871E-01 2.02627E-03-1.04705E+01-1.04441E+01
 -1       254 1.69900E+01 1.70834E+01-6.02584E+01-5.24375E-01-5.13186E+01-1.70415E+01
 -1       255-1.80193E+01-1.79640E+01 6.35677E+01 5.28151E-01-1.73499E+01-5.04527E+01
 -1       256-6.91528E+00-6.64187E+00 2.29065E+01-6.98183E-02-1.00454E+00-5.99441E+01
 -1       257-1.60481E+01-1.60093E+01 5.53034E+01-1.37295E-01-3.99383E+01-6.22828E+01
 -1       258-1.00278E+00-1.13637E+00 3.69447E+00-2.57445E-03 2.12468E+00 2.10023E+00
 -1       259-5.45759E+01-5.69247E+01 1.92774E+02 6.59421E-01 1.35345E+00 6.43029E+00
 -1       260-5.17014E+00 3.35148E+00 3.09568E+00 1.87383E-02-4.40239E+00-4.38940E+00
 -1       261 2.83688E+01 2.82149E+01-9.91392E+01-8.68076E-01 4.70307E+00 1.25972E+00
 -1       262-2.97773E+01-2.99920E+01 1.04635E+02 8.72994E-01 1.28305E+00 4.62968E+00
 -1       263-4.85657E+01-4.63307E+01 1.61108E+02-6.11805E-01-5.08375E-01-2.55090E+01
 -1       264-2.67632E+01-2.67563E+01 9.21171E+01-1.83824E-01 3.45869E+00 5.57721E+00
 -1       265-3.84163E-01-7.25243E-01 1.85377E+00-3.24373E-03 2.14867E+01 2.12066E+01
 -1       266-2.85263E+01-2.83440E+01 9.47580E+01 5.74617E-02 1.45209E+01 5.85949E+01
 -1       267-3.81647E+00 2.11696E+00 2.87808E+00 1.28335E-02 5.56800E+00 5.55541E+00
 -1       268 1.36399E+01 1.35177E+01-4.61076E+01-2.93465E-02 4.29026E+01 1.46875E+01
 -1       269-1.43527E+01-1.44717E+01 4.88813E+01 2.51501E-02 1.49469E+01 4.21860E+01
 -1       270-4.50373E+01-4.31978E+01 1.49218E+02-5.27521E-01 4.85489E-01 2.66018E+01
 -1       271-1.43124E+01-1.42592E+01 4.71143E+01 5.02219E-02 3.30157E+01 5.15442E+01
 -1       272 2.42804E+00-2.41386E+00-1.44940E-01-5.08198E-03 8.31714E+00 8.18840E+00
 -1       273-7.49720E-01 6.38665E-01-7.57620E+00 8.44109E-01 6.33205E+00 1.90728E+01
 -1       274 1.71820E+00-2.17570E+00 7.22256E-01-9.34324E-03 4.14283E+00 4.14697E+00
 -1       275 7.78964E-01-3.42854E+00 7.57761E+00 4.57542E-02 1.50687E+01 5.33361E+00
 -1       276 3.37779E+00-7.64166E-01-7.74319E+00-7.12680E-02 5.43825E+00 1.47979E+01
 -1       277-1.19995E+01-1.19776E+01 3.68272E+01 6.59305E-01-3.46036E-01 2.87324E+01
 -1       278-3.98931E-01-2.03123E+00-9.47342E-01 1.10817E+00 1.19263E+01 1.56497E+01
 -1       279-5.03281E-04-5.03875E-04-3.57223E+02 1.21056E-07-1.01621E+02-1.00817E+02
 -1       280-1.00864E+01-9.98836E+00 3.99389E+01-9.01216E+00-9.11722E+00-8.46591E+00
 -1       281 7.96799E-04 7.29059E-04-2.59906E+02 1.14878E-04-9.31232E+01-7.81143E+01
 -1       282-1.53238E+01-5.43741E+00 2.89555E+01-5.09009E+00-8.93518E+00-5.73728E+01
 -1       283 7.29954E-04 7.94904E-04-2.57934E+02 1.15537E-04-7.90690E+01-9.18944E+01
 -1       284 4.35485E+01 4.32815E+01-1.78915E+02 1.47703E+01-2.59767E+01-2.55610E+01
 -1       285-5.48364E+00-1.53048E+01 2.87971E+01-5.16058E+00-5.88218E+01-8.58259E+00
 -1       286-9.19829E+01-9.20281E+01 3.16029E+02 1.55756E+00-3.73429E+00-3.62416E+00
 -1       287-6.47185E+01-7.10967E+01 2.33410E+02 3.05789E-01-3.46856E+00-9.19887E+00
 -1       288-5.23634E+01-5.21781E+01 1.98238E+02-4.90988E+00 9.92096E-01 1.08368E+00
 -1       289-7.05509E+01-6.42353E+01 2.31638E+02 3.48784E-01-9.40419E+00-3.39189E+00
 -1       290-4.70969E+01-4.70841E+01 1.68020E+02-3.41437E-01 1.68510E+01 1.63687E+01
 -1       291-3.47114E+01-3.57804E+01 1.24907E+02-4.47668E-01 1.54734E+01 4.23101E+01
 -1       292-7.51169E+01-7.50480E+01 2.53820E+02-1.34729E+00-8.03113E-02-1.49449E-01
 -1       293-3.55391E+01-3.44553E+01 1.23979E+02-4.44314E-01 4.32894E+01 1.51414E+01
 -1       294 5.22788E+01 5.22740E+01-1.82773E+02-2.75264E-03 1.73949E+01 1.69012E+01
 -1       295 3.83195E+01 3.97953E+01-1.36169E+02 2.30215E-01 1.59684E+01 4.37505E+01
 -1       296 2.48626E+00 2.49386E+00-7.22018E+00-2.13657E-01 1.38653E+00 1.18777E+00
 -1       297 3.95211E+01 3.80400E+01-1.35178E+02 2.23033E-01 4.47630E+01 1.56263E+01
 -1       298 9.94710E+01 9.94683E+01-3.47411E+02-2.17583E-01-1.44840E+00-1.40844E+00
 -1       299 7.24703E+01 7.58943E+01-2.58614E+02 3.52254E-01-1.32254E+00-3.58759E+00
 -1       300 8.13620E+01 8.12776E+01-2.77744E+02 1.93428E+00 6.12779E-01 5.20871E-01
 -1       301 7.53631E+01 7.19374E+01-2.56720E+02 3.34238E-01-3.66984E+00-1.29440E+00
 -1       302 3.98585E+01 3.98563E+01-1.39862E+02-5.91821E-02-1.92772E+01-1.87308E+01
 -1       303 2.90018E+01 3.04214E+01-1.04012E+02 1.69496E-01-1.76789E+01-4.84962E+01
 -1       304 7.48480E+01 7.47697E+01-2.55435E+02 1.78108E+00-8.26057E-01-7.09076E-01
 -1       305 3.02085E+01 2.87868E+01-1.03244E+02 1.62199E-01-4.96161E+01-1.73000E+01
 -1       306-6.51462E+01-6.51443E+01 2.26146E+02 1.30871E-01-1.72781E+01-1.67900E+01
 -1       307-4.76826E+01-4.96136E+01 1.68612E+02-1.96856E-01-1.58279E+01-4.34580E+01
 -1       308-1.32532E+01-1.32440E+01 4.48635E+01-2.05729E-01-1.44227E+00-1.23628E+00
 -1       309-4.92694E+01-4.73369E+01 1.67392E+02-1.86489E-01-4.44604E+01-1.54892E+01
 -1       310-1.08594E+02-1.08595E+02 3.75102E+02 2.61386E-01 1.26246E+00 1.22085E+00
 -1       311-7.96010E+01-8.26924E+01 2.80021E+02-2.58263E-01 1.19650E+00 3.67958E+00
 -1       312-9.23669E+01-9.22830E+01 3.14307E+02-1.90251E+00-7.02327E-01-6.15735E-01
 -1       313-8.21176E+01-7.90299E+01 2.78014E+02-2.41115E-01 3.77150E+00 1.17146E+00
 -1       314-5.63177E+01-5.63211E+01 1.88215E+02 3.29338E-01 1.44269E+01 1.40064E+01
 -1       315-4.25270E+01-4.23663E+01 1.41274E+02 2.12763E-01 1.33180E+01 3.59561E+01
 -1       316-8.63052E+01-8.62467E+01 2.92213E+02-1.30300E+00 6.94058E-01 5.84501E-01
 -1       317-4.20894E+01-4.22525E+01 1.40338E+02 2.13299E-01 3.67942E+01 1.30261E+01
 -1       318 7.43845E-01 6.96157E-01-1.47159E+01 5.15977E-01 6.61677E+00 6.45420E+00
 -1       319-2.54269E+00 7.43638E-01-8.48104E+00 1.29579E+00 5.36517E+00 1.35990E+01
 -1       320-2.32063E+01-2.32446E+01 7.33312E+01 9.48626E-01-1.68982E-01-2.50630E-01
 -1       321 7.58836E-01-2.60972E+00-8.33014E+00 1.29464E+00 1.38932E+01 5.25908E+00
 -3
    1PSTEP                        44           1           1          
    1PGM                1.000000E+00                                  
    1PGK                2.305001E+10                                  
    1PHID                         -1                                  
    1PSUBC                         0                                  
    1PMODE                        11                                  
  100CL  111 24163.27076         321                     2   11MODAL      1
 -4  ERROR       1    1
 -5  STR(%)      1    1    0    0
 -1         1 1.91935E+01
 -1         2 2.57143E+01
 -1         3 2.57143E+01
 -1         4 1.91935E+01
 -1         5 2.57143E+01
 -1         6 2.57143E+01
 -1         7 2.57143E+01
 -1         8 2.57143E+01
 -1         9 2.24539E+01
 -1        10 2.57143E+01
 -1        11 2.24539E+01
 -1        12 1.91935E+01
 -1        13 2.24539E+01
 -1        14 2.57143E+01
 -1        15 2.57143E+01
 -1        16 2.24539E+01
 -1        17 2.57143E+01
 -1        18 2.57143E+01
 -1        19 2.57143E+01
 -1        20 2.57143E+01
 -1        21 2.17361E+01
 -1        22 1.81828E+01
 -1        23 2.17361E+01
 -1        24 2.17361E+01
 -1        25 2.37252E+01
 -1        26 1.99595E+01
 -1        27 1.86882E+01
 -1        28 2.17361E+01
 -1        29 1.99595E+01
 -1        30 2.37252E+01
 -1        31 2.17361E+01
 -1        32 2.37252E+01
 -1        33 2.17361E+01
 -1        34 1.97730E+01
 -1        35 2.17361E+01
 -1        36 2.17361E+01
 -1        37 2.17361E+01
 -1        38 2.07545E+01
 -1        39 1.89779E+01
 -1        40 2.17361E+01
 -1        41 2.07545E+01
 -1        42 2.17361E+01
 -1        43 2.17361E+01
 -1        44 2.17361E+01
 -1        45 2.20778E+01
 -1        46 1.97730E+01
 -1        47 2.20778E+01
 -1        48 2.20778E+01
 -1        49 2.19070E+01
 -1        50 2.09254E+01
 -1        51 1.97730E+01
 -1        52 2.20778E+01
 -1        53 2.09254E+01
 -1        54 2.19070E+01
 -1        55 2.20778E+01
 -1        56 2.19070E+01
 -1        57 2.20778E+01
 -1        58 1.83338E+01
 -1        59 2.20778E+01
 -1        60 2.20778E+01
 -1        61 2.20778E+01
 -1        62 2.02058E+01
 -1        63 1.90534E+01
 -1        64 2.20778E+01
 -1        65 2.02058E+01
 -1        66 2.20778E+01
 -1        67 2.20778E+01
 -1        68 2.20778E+01
 -1        69 2.17508E+01
 -1        70 1.96121E+01
 -1        71 2.17508E+01
 -1        72 2.17508E+01
 -1        73 2.19143E+01
 -1        74 2.06815E+01
 -1        75 1.89730E+01
 -1        76 2.17508E+01
 -1        77 2.06815E+01
 -1        78 2.19143E+01
 -1        79 2.17508E+01
 -1        80 2.19143E+01
 -1        81 2.21466E+01
 -1        82 1.96121E+01
 -1        83 2.21466E+01
 -1        84 2.21466E+01
 -1        85 2.19487E+01
 -1        86 2.08794E+01
 -1        87 1.96121E+01
 -1        88 2.21466E+01
 -1        89 2.08794E+01
 -1        90 2.19487E+01
 -1        91 2.21466E+01
 -1        92 2.19487E+01
 -1        93 2.21466E+01
 -1        94 1.84030E+01
 -1        95 2.21466E+01
 -1        96 2.21466E+01
 -1        97 2.21466E+01
 -1        98 2.02748E+01
 -1        99 1.90076E+01
 -1       100 2.21466E+01
 -1       101 2.02748E+01
 -1       102 2.21466E+01
 -1       103 2.21466E+01
 -1       104 2.21466E+01
 -1       105 2.16599E+01
 -1       106 2.03000E+01
 -1       107 2.16599E+01
 -1       108 2.16599E+01
 -1       109 2.19033E+01
 -1       110 2.09800E+01
 -1       111 1.93515E+01
 -1       112 2.16599E+01
 -1       113 2.09800E+01
 -1       114 2.19033E+01
 -1       115 2.16599E+01
 -1       116 2.19033E+01
 -1       117 2.03000E+01
 -1       118 2.03000E+01
 -1       119 2.03000E+01
 -1       120 2.03000E+01
 -1       121 2.09800E+01
 -1       122 2.03000E+01
 -1       123 2.03000E+01
 -1       124 2.03000E+01
 -1       125 2.03000E+01
 -1       126 2.09800E+01
 -1       127 2.03000E+01
 -1       128 2.09800E+01
 -1       129 2.57143E+01
 -1       130 2.57143E+01
 -1       131 2.57143E+01
 -1       132 2.57143E+01
 -1       133 2.57143E+01
 -1       134 2.57143E+01
 -1       135 2.57143E+01
 -1       136 2.57143E+01
 -1       137 2.57143E+01
 -1       138 2.57143E+01
 -1       139 2.57143E+01
 -1       140 2.57143E+01
 -1       141 2.17361E+01
 -1       142 2.17361E+01
 -1       143 2.17361E+01
 -1       144 2.17361E+01
 -1       145 2.37252E+01
 -1       146 2.17361E+01
 -1       147 2.37252E+01
 -1       148 2.17361E+01
 -1       149 2.17361E+01
 -1       150 2.17361E+01
 -1       151 2.17361E+01
 -1       152 2.17361E+01
 -1       153 2.17361E+01
 -1       154 2.17361E+01
 -1       155 2.20778E+01
 -1       156 2.20778E+01
 -1       157 2.20778E+01
 -1       158 2.20778E+01
 -1       159 2.19070E+01
 -1       160 2.20778E+01
 -1       161 2.19070E+01
 -1       162 2.20778E+01
 -1       163 2.20778E+01
 -1       164 2.20778E+01
 -1       165 2.20778E+01
 -1       166 2.20778E+01
 -1       167 2.20778E+01
 -1       168 2.20778E+01
 -1       169 2.17508E+01
 -1       170 2.17508E+01
 -1       171 2.17508E+01
 -1       172 2.17508E+01
 -1       173 2.19143E+01
 -1       174 2.17508E+01
 -1       175 2.19143E+01
 -1       176 2.21466E+01
 -1       177 2.21466E+01
 -1       178 2.21466E+01
 -1       179 2.21466E+01
 -1       180 2.19487E+01
 -1       181 2.21466E+01
 -1       182 2.19487E+01
 -1       183 2.21466E+01
 -1       184 2.21466E+01
 -1       185 2.21466E+01
 -1       186 2.21466E+01
 -1       187 2.21466E+01
 -1       188 2.21466E+01
 -1       189 2.21466E+01
 -1       190 2.16599E+01
 -1       191 2.16599E+01
 -1       192 2.16599E+01
 -1       193 2.16599E+01
 -1       194 2.19033E+01
 -1       195 2.16599E+01
 -1       196 2.19033E+01
 -1       197 2.03000E+01
 -1       198 1.91931E+01
 -1       199 2.03000E+01
 -1       200 1.97466E+01
 -1       201 2.09800E+01
 -1       202 1.97466E+01
 -1       203 2.04265E+01
 -1       204 2.57143E+01
 -1       205 2.57143E+01
 -1       206 2.57143E+01
 -1       207 2.57143E+01
 -1       208 2.57143E+01
 -1       209 2.57143E+01
 -1       210 2.57143E+01
 -1       211 2.57143E+01
 -1       212 2.57143E+01
 -1       213 2.57143E+01
 -1       214 2.57143E+01
 -1       215 2.57143E+01
 -1       216 2.17361E+01
 -1       217 2.17361E+01
 -1       218 2.37252E+01
 -1       219 2.17361E+01
 -1       220 2.17361E+01
 -1       221 2.37252E+01
 -1       222 2.17361E+01
 -1       223 2.17361E+01
 -1       224 2.17361E+01
 -1       225 2.17361E+01
 -1       226 2.17361E+01
 -1       227 2.17361E+01
 -1       228 2.17361E+01
 -1       229 2.17361E+01
 -1       230 2.20778E+01
 -1       231 2.20778E+01
 -1       232 2.19070E+01
 -1       233 2.20778E+01
 -1       234 2.20778E+01
 -1       235 2.19070E+01
 -1       236 2.20778E+01
 -1       237 2.20778E+01
 -1       238 2.20778E+01
 -1       239 2.20778E+01
 -1       240 2.20778E+01
 -1       241 2.20778E+01
 -1       242 2.20778E+01
 -1       243 2.20778E+01
 -1       244 2.17508E+01
 -1       245 2.17508E+01
 -1       246 2.19143E+01
 -1       247 2.17508E+01
 -1       248 2.17508E+01
 -1       249 2.19143E+01
 -1       250 2.17508E+01
 -1       251 2.21466E+01
 -1       252 2.21466E+01
 -1       253 2.19487E+01
 -1       254 2.21466E+01
 -1       255 2.21466E+01
 -1       256 2.19487E+01
 -1       257 2.21466E+01
 -1       258 2.21466E+01
 -1       259 2.21466E+01
 -1       260 2.21466E+01
 -1       261 2.21466E+01
 -1       262 2.21466E+01
 -1       263 2.21466E+01
 -1       264 2.21466E+01
 -1       265 2.16599E+01
 -1       266 2.16599E+01
 -1       267 2.19033E+01
 -1       268 2.16599E+01
 -1       269 2.16599E+01
 -1       270 2.19033E+01
 -1       271 2.16599E+01
 -1       272 1.91931E+01
 -1       273 2.03000E+01
 -1       274 2.04265E+01
 -1       275 1.97466E+01
 -1       276 1.97466E+01
 -1       277 2.09800E+01
 -1       278 2.03000E+01
 -1       279 1.91935E+01
 -1       280 1.91935E+01
 -1       281 2.24539E+01
 -1       282 2.24539E+01
 -1       283 2.24539E+01
 -1       284 1.91935E+01
 -1       285 2.24539E+01
 -1       286 1.81828E+01
 -1       287 1.99595E+01
 -1       288 1.86882E+01
 -1       289 1.99595E+01
 -1       290 1.97730E+01
 -1       291 2.07545E+01
 -1       292 1.89779E+01
 -1       293 2.07545E+01
 -1       294 1.97730E+01
 -1       295 2.09254E+01
 -1       296 1.97730E+01
 -1       297 2.09254E+01
 -1       298 1.83338E+01
 -1       299 2.02058E+01
 -1       300 1.90534E+01
 -1       301 2.02058E+01
 -1       302 1.96121E+01
 -1       303 2.06815E+01
 -1       304 1.89730E+01
 -1       305 2.06815E+01
 -1       306 1.96121E+01
 -1       307 2.08794E+01
 -1       308 1.96121E+01
 -1       309 2.08794E+01
 -1       310 1.84030E+01
 -1       311 2.02748E+01
 -1       312 1.90076E+01
 -1       313 2.02748E+01
 -1       314 2.03000E+01
 -1       315 2.09800E+01
 -1       316 1.93515E+01
 -1       317 2.09800E+01
 -1       318 2.03000E+01
 -1       319 2.03000E+01
 -1       320 2.03000E+01
 -1       321 2.03000E+01
 -3
    1PSTEP                        45           1           1          
    1PGM                1.000000E+00                                  
    1PGK                5.411283E+10                                  
    1PHID                         -1                                  
    1PSUBC                         0                                  
    1PMODE                        12                                  
  100CL  112 37022.88488         321                     2   12MODAL      1
 -4  DISP        4    1
 -5  D1          1    2    1    0
 -5  D2          1    2    2    0
 -5  D3          1    2    3    0
 -5  ALL         1    2    0    0    1ALL
 -1         1 0.00000E+00 0.00000E+00 0.00000E+00
 -1         2 0.00000E+00 0.00000E+00 0.00000E+00
 -1         3-6.62600E-01-4.37659E+00 1.78330E-01
 -1         4-4.18939E-01-4.18328E+00 1.19062E+00
 -1         5 0.00000E+00 0.00000E+00 0.00000E+00
 -1         6 0.00000E+00 0.00000E+00 0.00000E+00
 -1         7-6.87555E-01-4.26800E+00 2.26485E-14
 -1         8-7.05048E-01-4.11309E+00 1.10698E+00
 -1         9 0.00000E+00 0.00000E+00 0.00000E+00
 -1        10-3.29762E-01-1.92320E+00 1.78160E-01
 -1        11-5.38667E-01-4.29601E+00 4.77003E-01
 -1        12-4.87167E-01-2.01171E+00 1.24694E+00
 -1        13 0.00000E+00 0.00000E+00 0.00000E+00
 -1        14 0.00000E+00 0.00000E+00 0.00000E+00
 -1        15-6.77609E-01-4.30513E+00 5.97074E-02
 -1        16-5.63826E-01-4.13054E+00 1.15772E+00
 -1        17 0.00000E+00 0.00000E+00 0.00000E+00
 -1        18-3.17316E-01-1.96974E+00 8.63198E-15
 -1        19-6.93536E-01-4.20626E+00 3.70634E-01
 -1        20-3.09819E-01-2.04700E+00 1.10593E+00
 -1        21-6.46600E-01-4.36610E+00-2.69249E-01
 -1        22-2.93118E-01-4.14278E+00-1.90210E+00
 -1        23-6.76097E-01-4.19688E+00 5.06262E-14
 -1        24-7.03359E-01-4.01378E+00-1.67137E+00
 -1        25-8.16511E-01-5.40547E+00-3.00441E-02
 -1        26-4.71253E-01-4.31712E+00-9.88000E-01
 -1        27-4.29239E-01-5.21521E+00-2.33059E-01
 -1        28-6.72015E-01-4.22699E+00-1.21290E-01
 -1        29-5.08975E-01-4.01583E+00-1.79592E+00
 -1        30-8.40525E-01-5.21757E+00 3.95239E-14
 -1        31-6.80948E-01-4.17154E+00-7.52907E-01
 -1        32-8.70796E-01-5.06850E+00-1.86499E-01
 -1        33 2.92469E-01 2.03269E+00-3.75432E-01
 -1        34 7.86778E-02 1.89467E+00-2.63812E+00
 -1        35 3.10443E-01 1.92708E+00 6.52811E-14
 -1        36 3.27456E-01 1.81550E+00-2.33050E+00
 -1        37-2.16059E-01-1.42647E+00-3.99792E-01
 -1        38 1.84823E-01 1.99844E+00-1.35315E+00
 -1        39-1.24264E-01-1.37719E+00-2.80197E+00
 -1        40 3.07292E-01 1.94851E+00-1.66925E-01
 -1        41 2.08804E-01 1.82026E+00-2.49678E+00
 -1        42-2.22700E-01-1.38241E+00 6.35048E-14
 -1        43 3.13895E-01 1.90752E+00-1.03619E+00
 -1        44-2.29797E-01-1.34119E+00-2.48171E+00
 -1        45 6.96672E-01 4.79053E+00 1.00810E-01
 -1        46 2.36964E-01 4.49240E+00 7.05734E-01
 -1        47 7.35373E-01 4.56484E+00 6.66134E-14
 -1        48 7.71731E-01 4.32460E+00 6.25781E-01
 -1        49 6.51659E-01 4.44260E+00-1.71074E-01
 -1        50 4.63734E-01 4.71259E+00 3.56379E-01
 -1        51 2.38053E-01 4.20174E+00-1.19795E+00
 -1        52 7.27944E-01 4.61234E+00 4.40423E-02
 -1        53 5.16090E-01 4.33706E+00 6.69368E-01
 -1        54 6.82121E-01 4.23427E+00 6.35048E-14
 -1        55 7.43026E-01 4.51872E+00 2.73393E-01
 -1        56 7.15682E-01 4.04518E+00-1.06195E+00
 -1        57-6.80620E-02-4.61165E-01 3.99392E-01
 -1        58-2.94190E-02-4.36494E-01 2.80147E+00
 -1        59-7.12912E-02-4.42541E-01 5.14033E-14
 -1        60-7.42916E-02-4.22495E-01 2.47923E+00
 -1        61 4.13097E-01 2.81293E+00 3.18427E-01
 -1        62-4.85239E-02-4.54827E-01 1.42546E+00
 -1        63 1.53686E-01 2.66230E+00 2.22425E+00
 -1        64-7.06866E-02-4.46372E-01 1.75990E-01
 -1        65-5.28620E-02-4.23481E-01 2.65482E+00
 -1        66 4.32112E-01 2.68234E+00 6.83897E-14
 -1        67-7.19084E-02-4.38787E-01 1.09246E+00
 -1        68 4.53150E-01 2.56430E+00 1.97664E+00
 -1        69-7.32340E-01-5.01595E+00 3.90720E-02
 -1        70-2.66910E-01-4.71584E+00 2.75500E-01
 -1        71-7.71426E-01-4.78863E+00 2.66454E-14
 -1        72-8.08046E-01-4.54600E+00 2.42539E-01
 -1        73-5.20677E-01-3.53051E+00 2.77713E-01
 -1        74-4.97028E-01-4.93873E+00 1.43012E-01
 -1        75-2.07717E-01-3.35050E+00 1.94108E+00
 -1        76-7.64109E-01-4.83584E+00 1.76066E-02
 -1        77-5.49565E-01-4.55782E+00 2.60258E-01
 -1        78-5.43472E-01-3.37361E+00 3.37508E-14
 -1        79-7.79031E-01-4.74321E+00 1.09293E-01
 -1        80-5.68748E-01-3.23211E+00 1.72391E+00
 -1        81-2.07764E-01-1.39971E+00-3.74429E-01
 -1        82-9.70504E-02-1.32984E+00-2.62169E+00
 -1        83-2.16984E-01-1.34693E+00-5.21805E-15
 -1        84-2.25487E-01-1.28970E+00-2.32427E+00
 -1        85-6.08971E-01-4.12165E+00-2.16295E-01
 -1        86-1.52082E-01-1.38255E+00-1.32408E+00
 -1        87-2.49889E-01-3.91612E+00-1.50860E+00
 -1        88-2.15381E-01-1.35736E+00-1.63628E-01
 -1        89-1.64258E-01-1.29202E+00-2.48711E+00
 -1        90-6.35030E-01-3.94195E+00 1.32117E-14
 -1        91-2.18665E-01-1.33698E+00-1.01572E+00
 -1        92-6.63978E-01-3.78019E+00-1.34265E+00
 -1        93 6.06882E-01 4.24182E+00-1.32596E-01
 -1        94 1.44619E-01 3.93694E+00-9.15685E-01
 -1        95 6.46149E-01 4.01098E+00-5.10703E-14
 -1        96 6.83337E-01 3.76722E+00-8.23089E-01
 -1        97 2.76285E-01 1.92040E+00-3.32164E-01
 -1        98 3.72196E-01 4.16073E+00-4.38802E-01
 -1        99 6.60539E-02 1.79441E+00-2.31244E+00
 -1       100 6.38450E-01 4.06046E+00-5.46688E-02
 -1       101 4.25538E-01 3.78044E+00-8.75555E-01
 -1       102 2.92064E-01 1.81299E+00-3.15303E-14
 -1       103 6.54120E-01 3.96318E+00-3.39357E-01
 -1       104 3.09367E-01 1.71504E+00-2.06191E+00
 -1       105 2.67527E-01 2.06366E+00 4.38733E-01
 -1       106-1.09097E-01 1.80096E+00 3.11695E+00
 -1       107 3.00152E-01 1.86319E+00-6.72795E-14
 -1       108 3.32446E-01 1.66068E+00 2.72344E+00
 -1       109 6.16237E-01 4.31532E+00 1.64626E-01
 -1       110 7.24746E-02 1.98600E+00 1.67638E+00
 -1       111 1.19956E-01 4.01156E+00 1.17400E+00
 -1       112 2.92618E-01 1.91092E+00 2.05677E-01
 -1       113 1.20023E-01 1.67642E+00 2.93000E+00
 -1       114 6.54107E-01 4.06037E+00-7.10543E-14
 -1       115 3.07840E-01 1.81643E+00 1.27674E+00
 -1       116 6.95177E-01 3.82530E+00 1.02192E+00
 -1       117-9.72393E-01-5.96033E+00 6.24765E-01
 -1       118-9.72721E-01-6.00976E+00 4.44798E+00
 -1       119-9.66696E-01-6.00077E+00-7.94920E-14
 -1       120-9.60181E-01-6.03614E+00 3.87823E+00
 -1       121-3.22582E-01-1.81775E+00 5.82763E-01
 -1       122-9.70457E-01-5.99211E+00 2.48884E+00
 -1       123-4.87935E-01-1.93853E+00 4.14415E+00
 -1       124-9.70927E-01-5.97794E+00 3.06496E-01
 -1       125-9.72143E-01-6.01997E+00 4.17297E+00
 -1       126-3.08120E-01-1.91266E+00-9.63674E-14
 -1       127-9.63018E-01-6.02704E+00 1.90258E+00
 -1       128-2.92831E-01-2.00243E+00 3.61750E+00
 -1       129 0.00000E+00 0.00000E+00 0.00000E+00
 -1       130 0.00000E+00 0.00000E+00 0.00000E+00
 -1       131-6.62600E-01-4.37659E+00-1.78330E-01
 -1       132-9.42461E-01-4.26762E+00 8.60240E-01
 -1       133 0.00000E+00 0.00000E+00 0.00000E+00
 -1       134 0.00000E+00 0.00000E+00 0.00000E+00
 -1       135-6.77609E-01-4.30513E+00-5.97074E-02
 -1       136-8.27143E-01-4.17246E+00 1.06163E+00
 -1       137 0.00000E+00 0.00000E+00 0.00000E+00
 -1       138-3.29762E-01-1.92320E+00-1.78160E-01
 -1       139-7.98907E-01-4.33843E+00 1.19475E-01
 -1       140-1.52295E-01-1.95776E+00 9.00927E-01
 -1       141-6.46600E-01-4.36610E+00 2.69249E-01
 -1       142-1.06159E+00-4.26657E+00-1.37429E+00
 -1       143-6.72015E-01-4.22699E+00 1.21290E-01
 -1       144-8.91898E-01-4.07394E+00-1.56482E+00
 -1       145-8.16511E-01-5.40547E+00 3.00441E-02
 -1       146-8.31972E-01-4.37881E+00-4.46601E-01
 -1       147-1.27295E+00-5.35113E+00-1.68388E-01
 -1       148 2.92469E-01 2.03269E+00 3.75432E-01
 -1       149 5.43840E-01 1.96961E+00-1.90607E+00
 -1       150 3.07292E-01 1.94851E+00 1.66925E-01
 -1       151 4.41105E-01 1.85612E+00-2.18224E+00
 -1       152-2.16059E-01-1.42647E+00 3.99792E-01
 -1       153 4.07425E-01 2.03587E+00-5.99382E-01
 -1       154-3.24654E-01-1.40947E+00-2.02446E+00
 -1       155 6.96672E-01 4.79053E+00-1.00810E-01
 -1       156 1.23638E+00 4.65340E+00 5.09901E-01
 -1       157 7.27944E-01 4.61234E+00-4.40423E-02
 -1       158 1.01522E+00 4.41477E+00 5.87155E-01
 -1       159 6.51659E-01 4.44260E+00 1.71074E-01
 -1       160 9.46145E-01 4.79300E+00 1.53959E-01
 -1       161 1.13909E+00 4.34690E+00-8.65534E-01
 -1       162-6.80620E-02-4.61165E-01-3.99392E-01
 -1       163-1.13395E-01-4.50022E-01 2.02410E+00
 -1       164-7.06866E-02-4.46372E-01-1.75990E-01
 -1       165-9.47663E-02-4.29996E-01 2.32478E+00
 -1       166 4.13097E-01 2.81293E+00-3.18427E-01
 -1       167-8.89671E-02-4.61577E-01 6.23267E-01
 -1       168 7.18746E-01 2.75333E+00 1.60705E+00
 -1       169-7.32340E-01-5.01595E+00-3.90720E-02
 -1       170-1.27875E+00-4.87884E+00 1.99052E-01
 -1       171-7.64109E-01-4.83584E+00-1.76066E-02
 -1       172-1.05476E+00-4.63629E+00 2.26822E-01
 -1       173-5.20677E-01-3.53051E+00-2.77713E-01
 -1       174-9.84099E-01-5.02011E+00 6.45455E-02
 -1       175-8.89474E-01-3.46032E+00 1.40245E+00
 -1       176-2.07764E-01-1.39971E+00 3.74429E-01
 -1       177-3.37657E-01-1.36860E+00-1.89420E+00
 -1       178-2.15381E-01-1.35736E+00 1.63628E-01
 -1       179-2.84301E-01-1.31056E+00-2.18166E+00
 -1       180-6.08971E-01-4.12165E+00 2.16295E-01
 -1       181-2.67181E-01-1.40189E+00-5.71960E-01
 -1       182-1.03215E+00-4.04214E+00-1.08998E+00
 -1       183 6.06882E-01 4.24182E+00 1.32596E-01
 -1       184 1.14991E+00 4.09888E+00-6.61593E-01
 -1       185 6.38450E-01 4.06046E+00 5.46688E-02
 -1       186 9.28053E-01 3.85877E+00-7.77065E-01
 -1       187 2.76285E-01 1.92040E+00 3.32164E-01
 -1       188 8.58445E-01 4.24169E+00-1.72573E-01
 -1       189 5.23971E-01 1.86818E+00-1.67077E+00
 -1       190 2.67527E-01 2.06366E+00-4.38733E-01
 -1       191 7.10624E-01 1.93302E+00 2.25203E+00
 -1       192 2.92618E-01 1.91092E+00-2.05677E-01
 -1       193 5.30499E-01 1.74178E+00 2.53163E+00
 -1       194 6.16237E-01 4.31532E+00-1.64626E-01
 -1       195 4.78181E-01 2.05212E+00 7.96535E-01
 -1       196 1.20058E+00 4.18565E+00 8.48230E-01
 -1       197-9.72393E-01-5.96033E+00-6.24765E-01
 -1       198-9.63321E-01-6.00824E+00 3.21371E+00
 -1       199-9.70927E-01-5.97794E+00-3.06496E-01
 -1       200-9.58093E-01-6.01975E+00 3.57208E+00
 -1       201-3.22582E-01-1.81775E+00-5.82763E-01
 -1       202-9.69086E-01-5.98985E+00 1.24115E+00
 -1       203-1.27280E-01-1.88043E+00 2.99420E+00
 -1       204 0.00000E+00 0.00000E+00 0.00000E+00
 -1       205-9.42461E-01-4.26762E+00-8.60240E-01
 -1       206 0.00000E+00 0.00000E+00 0.00000E+00
 -1       207-7.05048E-01-4.11309E+00-1.10698E+00
 -1       208 0.00000E+00 0.00000E+00 0.00000E+00
 -1       209-1.52295E-01-1.95776E+00-9.00927E-01
 -1       210-7.98907E-01-4.33843E+00-1.19475E-01
 -1       211 0.00000E+00 0.00000E+00 0.00000E+00
 -1       212-8.27143E-01-4.17246E+00-1.06163E+00
 -1       213 0.00000E+00 0.00000E+00 0.00000E+00
 -1       214-3.09819E-01-2.04700E+00-1.10593E+00
 -1       215-6.93536E-01-4.20626E+00-3.70634E-01
 -1       216-1.06159E+00-4.26657E+00 1.37429E+00
 -1       217-7.03359E-01-4.01378E+00 1.67137E+00
 -1       218-1.27295E+00-5.35113E+00 1.68388E-01
 -1       219-8.31972E-01-4.37881E+00 4.46601E-01
 -1       220-8.91898E-01-4.07394E+00 1.56482E+00
 -1       221-8.70796E-01-5.06850E+00 1.86499E-01
 -1       222-6.80948E-01-4.17154E+00 7.52907E-01
 -1       223 5.43840E-01 1.96961E+00 1.90607E+00
 -1       224 3.27456E-01 1.81550E+00 2.33050E+00
 -1       225-3.24654E-01-1.40947E+00 2.02446E+00
 -1       226 4.07425E-01 2.03587E+00 5.99382E-01
 -1       227 4.41105E-01 1.85612E+00 2.18224E+00
 -1       228-2.29797E-01-1.34119E+00 2.48171E+00
 -1       229 3.13895E-01 1.90752E+00 1.03619E+00
 -1       230 1.23638E+00 4.65340E+00-5.09901E-01
 -1       231 7.71731E-01 4.32460E+00-6.25781E-01
 -1       232 1.13909E+00 4.34690E+00 8.65534E-01
 -1       233 9.46145E-01 4.79300E+00-1.53959E-01
 -1       234 1.01522E+00 4.41477E+00-5.87155E-01
 -1       235 7.15682E-01 4.04518E+00 1.06195E+00
 -1       236 7.43026E-01 4.51872E+00-2.73393E-01
 -1       237-1.13395E-01-4.50022E-01-2.02410E+00
 -1       238-7.42916E-02-4.22495E-01-2.47923E+00
 -1       239 7.18746E-01 2.75333E+00-1.60705E+00
 -1       240-8.89671E-02-4.61577E-01-6.23267E-01
 -1       241-9.47663E-02-4.29996E-01-2.32478E+00
 -1       242 4.53150E-01 2.56430E+00-1.97664E+00
 -1       243-7.19084E-02-4.38787E-01-1.09246E+00
 -1       244-1.27875E+00-4.87884E+00-1.99052E-01
 -1       245-8.08046E-01-4.54600E+00-2.42539E-01
 -1       246-8.89474E-01-3.46032E+00-1.40245E+00
 -1       247-9.84099E-01-5.02011E+00-6.45455E-02
 -1       248-1.05476E+00-4.63629E+00-2.26822E-01
 -1       249-5.68748E-01-3.23211E+00-1.72391E+00
 -1       250-7.79031E-01-4.74321E+00-1.09293E-01
 -1       251-3.37657E-01-1.36860E+00 1.89420E+00
 -1       252-2.25487E-01-1.28970E+00 2.32427E+00
 -1       253-1.03215E+00-4.04214E+00 1.08998E+00
 -1       254-2.67181E-01-1.40189E+00 5.71960E-01
 -1       255-2.84301E-01-1.31056E+00 2.18166E+00
 -1       256-6.63978E-01-3.78019E+00 1.34265E+00
 -1       257-2.18665E-01-1.33698E+00 1.01572E+00
 -1       258 1.14991E+00 4.09888E+00 6.61593E-01
 -1       259 6.83337E-01 3.76722E+00 8.23089E-01
 -1       260 5.23971E-01 1.86818E+00 1.67077E+00
 -1       261 8.58445E-01 4.24169E+00 1.72573E-01
 -1       262 9.28053E-01 3.85877E+00 7.77065E-01
 -1       263 3.09367E-01 1.71504E+00 2.06191E+00
 -1       264 6.54120E-01 3.96318E+00 3.39357E-01
 -1       265 7.10624E-01 1.93302E+00-2.25203E+00
 -1       266 3.32446E-01 1.66068E+00-2.72344E+00
 -1       267 1.20058E+00 4.18565E+00-8.48230E-01
 -1       268 4.78181E-01 2.05212E+00-7.96535E-01
 -1       269 5.30499E-01 1.74178E+00-2.53163E+00
 -1       270 6.95177E-01 3.82530E+00-1.02192E+00
 -1       271 3.07840E-01 1.81643E+00-1.27674E+00
 -1       272-9.63321E-01-6.00824E+00-3.21371E+00
 -1       273-9.60181E-01-6.03614E+00-3.87823E+00
 -1       274-1.27280E-01-1.88043E+00-2.99420E+00
 -1       275-9.69086E-01-5.98985E+00-1.24115E+00
 -1       276-9.58093E-01-6.01975E+00-3.57208E+00
 -1       277-2.92831E-01-2.00243E+00-3.61750E+00
 -1       278-9.63018E-01-6.02704E+00-1.90258E+00
 -1       279 0.00000E+00 0.00000E+00 0.00000E+00
 -1       280-4.18939E-01-4.18328E+00-1.19062E+00
 -1       281 0.00000E+00 0.00000E+00 0.00000E+00
 -1       282-5.63826E-01-4.13054E+00-1.15772E+00
 -1       283 0.00000E+00 0.00000E+00 0.00000E+00
 -1       284-4.87167E-01-2.01171E+00-1.24694E+00
 -1       285-5.38667E-01-4.29601E+00-4.77003E-01
 -1       286-2.93118E-01-4.14278E+00 1.90210E+00
 -1       287-5.08975E-01-4.01583E+00 1.79592E+00
 -1       288-4.29239E-01-5.21521E+00 2.33059E-01
 -1       289-4.71253E-01-4.31712E+00 9.88000E-01
 -1       290 7.86778E-02 1.89467E+00 2.63812E+00
 -1       291 2.08804E-01 1.82026E+00 2.49678E+00
 -1       292-1.24264E-01-1.37719E+00 2.80197E+00
 -1       293 1.84823E-01 1.99844E+00 1.35315E+00
 -1       294 2.36964E-01 4.49240E+00-7.05734E-01
 -1       295 5.16090E-01 4.33706E+00-6.69368E-01
 -1       296 2.38053E-01 4.20174E+00 1.19795E+00
 -1       297 4.63734E-01 4.71259E+00-3.56379E-01
 -1       298-2.94190E-02-4.36494E-01-2.80147E+00
 -1       299-5.28620E-02-4.23481E-01-2.65482E+00
 -1       300 1.53686E-01 2.66230E+00-2.22425E+00
 -1       301-4.85239E-02-4.54827E-01-1.42546E+00
 -1       302-2.66910E-01-4.71584E+00-2.75500E-01
 -1       303-5.49565E-01-4.55782E+00-2.60258E-01
 -1       304-2.07717E-01-3.35050E+00-1.94108E+00
 -1       305-4.97028E-01-4.93873E+00-1.43012E-01
 -1       306-9.70504E-02-1.32984E+00 2.62169E+00
 -1       307-1.64258E-01-1.29202E+00 2.48711E+00
 -1       308-2.49889E-01-3.91612E+00 1.50860E+00
 -1       309-1.52082E-01-1.38255E+00 1.32408E+00
 -1       310 1.44619E-01 3.93694E+00 9.15685E-01
 -1       311 4.25538E-01 3.78044E+00 8.75555E-01
 -1       312 6.60539E-02 1.79441E+00 2.31244E+00
 -1       313 3.72196E-01 4.16073E+00 4.38802E-01
 -1       314-1.09097E-01 1.80096E+00-3.11695E+00
 -1       315 1.20023E-01 1.67642E+00-2.93000E+00
 -1       316 1.19956E-01 4.01156E+00-1.17400E+00
 -1       317 7.24746E-02 1.98600E+00-1.67638E+00
 -1       318-9.72721E-01-6.00976E+00-4.44798E+00
 -1       319-9.72143E-01-6.01997E+00-4.17297E+00
 -1       320-4.87935E-01-1.93853E+00-4.14415E+00
 -1       321-9.70457E-01-5.99211E+00-2.48884E+00
 -3
    1PSTEP                        46           1           1          
    1PGM                1.000000E+00                                  
    1PGK                5.411283E+10                                  
    1PHID                         -1                                  
    1PSUBC                         0                                  
    1PMODE                        12                                  
  100CL  112 37022.88488         321                     2   12MODAL      1
 -4  STRESS      6    1
 -5  SXX         1    4    1    1
 -5  SYY         1    4    2    2
 -5  SZZ         1    4    3    3
 -5  SXY         1    4    1    2
 -5  SYZ         1    4    2    3
 -5  SZX         1    4    3    1
 -1         1 4.60036E+13 4.60036E+13 1.07342E+14-1.00121E+06-3.12048E+13-1.23554E+13
 -1         2 6.47339E+12 6.47339E+12 1.51046E+13-1.80086E+06-2.67840E+13-5.30196E+12
 -1         3-3.96644E+11-1.51440E+11-6.08186E+12 1.31567E+12-3.59132E+13-4.67380E+11
 -1         4-1.50639E+12-2.66360E+12-4.34386E+13 1.52614E+12-5.25944E+12 2.89440E+12
 -1         5 4.01836E+13 4.01836E+13 9.37617E+13-2.90110E+05-3.29120E+13-4.31478E+12
 -1         6 1.31632E-01 1.38962E-01 3.32298E-01-5.02384E-03-2.91646E+13-4.69827E+12
 -1         7-1.67969E-01-3.90991E-01 6.02173E-01 2.20657E-01-2.94490E+13-4.74409E+12
 -1         8-9.40063E+11-2.46217E+12-3.77532E+13 2.11949E+11-2.90126E+12-5.78544E+12
 -1         9 2.37251E+13 2.37251E+13 5.53588E+13-2.26545E+07-2.91261E+13-8.81200E+12
 -1        10 1.09557E+12 4.70784E+11 4.21492E+12-2.53236E+12-2.49315E+13-1.52224E+12
 -1        11 6.48730E+11 1.60877E+12-2.23504E+13 1.36132E+12-2.07204E+13 8.10063E+11
 -1        12 3.23981E+12 7.03067E+12 2.80848E+13-2.61067E+12-9.82107E+12-1.39425E+12
 -1        13 4.32020E+13 4.32021E+13 1.00805E+14-1.44252E+07-3.19177E+13-8.35019E+12
 -1        14 2.87984E+12 2.87984E+12 6.71965E+12-1.19659E+07-2.78374E+13-5.02085E+12
 -1        15 2.98727E+11 1.77820E+11-2.67582E+12 3.48063E+11-3.17598E+13-2.64898E+12
 -1        16-8.74014E+11-2.42296E+12-4.05465E+13 5.46961E+11-3.20929E+12-7.43291E+11
 -1        17 1.78766E+13 1.78766E+13 4.17123E+13-1.92766E+06-3.11670E+13-4.48448E+12
 -1        18-4.83398E-02-5.05371E-02 4.45679E-01 1.84875E-01-2.25159E+13-3.62721E+12
 -1        19 1.10382E+12 1.85435E+12-1.66102E+13 5.60714E+10-1.64436E+13-5.11635E+12
 -1        20 2.92240E+12 6.80078E+12 2.61641E+13-4.07951E+11-9.44930E+12-4.01635E+12
 -1        21-3.51905E+10-3.80458E+11-9.83954E+12-8.08111E+11 1.85070E+13 6.31489E+11
 -1        22-1.94404E+12-1.26986E+12-6.86562E+13-3.18502E+11 4.76494E+12-2.16484E+11
 -1        23 8.14270E-01-8.79639E-01 5.48401E-01-8.75549E-02 1.52834E+13 2.46208E+12
 -1        24-2.36169E+12-2.18445E+11-6.10790E+13-1.30183E+11 3.91998E+12 2.98138E+12
 -1        25-9.24866E+11-3.56625E+11-9.78384E+12 1.05922E+12-6.79837E+12 1.64759E+11
 -1        26-4.54177E+11-1.39677E+12-3.54684E+13-4.19803E+11 1.17517E+13 4.36676E+11
 -1        27-2.65645E+12-6.49843E+12-6.76953E+13 1.27548E+12 5.94929E+11 2.72838E+11
 -1        28-1.31392E+11-1.52482E+11-4.41514E+12-2.06960E+10 1.62862E+13 1.58065E+12
 -1        29-2.49481E+12-5.98247E+11-6.51527E+13 3.11258E+11 3.76709E+12 8.54300E+11
 -1        30 2.72171E-01-7.59796E-01 4.45404E-01 2.45972E-01-5.67173E+12-9.13689E+11
 -1        31-9.46533E+11-8.15618E+11-2.74070E+13-3.33403E+09 9.81187E+12 2.62363E+12
 -1        32-2.21375E+12-5.74111E+12-6.07333E+13 1.70636E+11 1.02274E+12-1.09519E+12
 -1        33 5.85098E+10 1.85847E+11 5.79377E+12 2.98729E+11 3.14503E+13 1.18406E+12
 -1        34 9.92572E+11 8.19872E+11 4.05299E+13 1.24184E+11 8.77057E+12-4.50881E+11
 -1        35 1.08643E-01-2.00104E-01-1.86096E-01-7.39120E-01 2.60399E+13 4.19490E+12
 -1        36 1.15365E+12 3.63200E+11 3.59649E+13 4.81239E+10 7.35003E+12 5.06649E+12
 -1        37 2.22958E+10 1.17388E+10-2.21968E+12-5.88542E+10 2.11514E+13 2.41567E+10
 -1        38 3.58627E+11 8.17524E+11 2.16891E+13 1.54110E+11 2.05287E+13 7.56627E+11
 -1        39 1.61828E+11-1.74886E+11-1.54607E+13 7.83282E+10 1.84130E+12-1.47033E+12
 -1        40 8.12586E+10 8.41237E+10 2.70314E+12-9.03074E+09 2.76445E+13 2.78083E+12
 -1        41 1.24201E+12 5.48978E+11 3.84208E+13-1.24540E+11 6.98299E+12 1.63568E+12
 -1        42 6.52100E-01-3.15430E-01 4.07593E-01-1.93331E-01 1.62181E+13 2.61267E+12
 -1        43 5.22199E+11 5.04413E+11 1.67797E+13-1.45481E+09 1.72620E+13 4.45341E+12
 -1        44 7.28688E+10 1.38401E+11-1.37787E+13-9.48113E+09 1.49953E+11 3.40739E+12
 -1        45 3.37100E+11 5.33354E+11 1.26845E+13 3.54487E+11-9.58484E+12-3.58060E+11
 -1        46 2.96297E+12 2.93370E+12 8.83850E+13 1.00008E+11-2.65161E+12 1.31942E+11
 -1        47 1.97418E-01-1.47510E+00-3.58887E-02-1.11389E-03-7.94340E+12-1.27964E+12
 -1        48 3.31080E+12 2.09255E+12 7.87388E+13 5.71062E+10-2.22266E+12-1.54407E+12
 -1        49 2.84347E+11 7.56479E+10 1.01093E+13-3.46933E+11 9.19598E+12 3.50989E+10
 -1        50 8.88332E+11 1.80885E+12 4.68804E+13 1.24811E+11-6.24681E+12-2.28653E+11
 -1        51 5.63208E+11 2.49984E+12 7.11416E+13-5.95030E+11 9.45649E+11-6.32033E+11
 -1        52 1.86758E+11 1.84753E+11 5.85614E+12-1.06229E+11-8.43037E+12-8.46542E+11
 -1        53 3.45620E+12 2.46193E+12 8.39277E+13-2.71898E+11-2.11134E+12-5.08099E+11
 -1        54 4.66095E-01-5.32776E-01 1.52588E-02-3.90900E-01 7.04437E+12 1.13481E+12
 -1        55 1.14686E+12 1.15930E+12 3.63520E+13-1.71129E+10-5.25492E+12-1.35809E+12
 -1        56 4.69585E+11 1.76509E+12 6.27538E+13-5.58892E+10 2.17877E+11 1.48143E+12
 -1        57-3.83165E+10-5.55002E+10-1.08988E+12-2.66622E+10-3.56537E+13-1.32949E+12
 -1        58-3.11464E+11-3.19236E+11-7.56483E+12-4.51084E+09-9.83332E+12 4.67228E+11
 -1        59 6.83743E+00 8.85593E+00 3.66058E+00 1.44995E+00-2.95122E+13-4.75428E+12
 -1        60-3.44518E+11-2.37850E+11-6.76542E+12-4.29515E+09-8.25281E+12-5.74364E+12
 -1        61 2.07617E+11 5.91323E+10 6.35039E+12-2.65967E+11-1.89286E+13-6.14992E+10
 -1        62-8.83125E+10-1.77050E+11-3.95593E+12-6.25162E+09-2.31843E+13-8.57727E+11
 -1        63 4.39392E+11 1.73313E+12 4.46634E+13-4.01027E+11-1.85636E+12 1.26401E+12
 -1        64-1.82304E+10-1.77476E+10-4.95127E+11 1.26503E+10-3.13441E+13-3.13956E+12
 -1        65-3.57018E+11-2.74600E+11-7.19774E+12 2.62760E+10-7.84355E+12-1.85622E+12
 -1        66 3.37338E+00 3.46368E+00 1.73328E+00 3.19389E-01-1.45447E+13-2.34308E+12
 -1        67-1.10168E+11-1.13165E+11-3.07350E+12 2.03790E+09-1.94888E+13-5.04939E+12
 -1        68 3.67064E+11 1.28879E+12 3.94201E+13-4.28461E+10-3.81757E+11-3.04931E+12
 -1        69-3.38595E+11-5.55824E+11-1.28914E+13-4.02397E+11-2.88614E+12-1.06262E+11
 -1        70-3.07695E+12-3.01373E+12-8.97698E+13-1.16285E+11-7.87628E+11 4.42934E+10
 -1        71-3.41840E+00-9.06006E-01-1.53613E+00-5.68390E-01-2.38455E+12-3.84140E+11
 -1        72-3.45028E+12-2.10183E+12-8.00237E+13-6.48243E+10-6.59620E+11-4.64943E+11
 -1        73-2.52495E+11-7.42674E+10-7.66493E+12 3.18543E+11-1.61447E+13-5.10349E+10
 -1        74-9.30619E+11-1.91666E+12-4.74748E+13-1.48554E+11-1.87244E+12-6.76698E+10
 -1        75-5.28486E+11-2.12937E+12-5.38442E+13 4.96176E+11-1.58040E+12 1.08236E+12
 -1        76-1.97158E+11-1.96216E+11-5.93324E+12 1.03852E+11-2.53443E+12-2.53279E+11
 -1        77-3.60597E+12-2.49680E+12-8.52838E+13 2.92411E+11-6.25121E+11-1.43509E+11
 -1        78 1.12357E+00 2.85278E+00 6.50269E-01 4.86343E-01-1.23969E+13-1.99708E+12
 -1        79-1.21801E+12-1.22386E+12-3.68306E+13 1.67300E+10-1.57223E+12-4.08285E+11
 -1        80-4.61016E+11-1.56736E+12-4.75801E+13 5.13158E+10-3.16799E+11-2.60084E+12
 -1        81-9.87122E+10-1.61831E+11-3.14217E+12-1.08559E+11 3.54327E+13 1.31928E+12
 -1        82-9.08872E+11-8.91057E+11-2.17938E+13-2.81074E+10 9.75881E+12-4.49891E+11
 -1        83 1.71509E+00-4.41666E-01-6.89026E-01 6.12995E-01 2.93420E+13 4.72686E+12
 -1        84-1.00457E+12-6.12757E+11-1.95050E+13-1.74883E+10 8.18942E+12 5.70804E+12
 -1        85-2.90903E+11-8.66063E+10-8.79699E+12 3.64446E+11 1.35861E+13 4.33225E+10
 -1        86-2.75836E+11-5.57255E+11-1.13633E+13-3.66953E+10 2.30401E+13 8.55292E+11
 -1        87-6.12908E+11-2.47088E+12-6.17676E+13 5.75175E+11 1.31333E+12-8.92312E+11
 -1        88-5.68224E+10-5.65296E+10-1.42370E+12 3.28531E+10 3.11546E+13 3.12080E+12
 -1        89-1.05155E+12-7.35448E+11-2.07512E+13 8.37214E+10 7.78131E+12 1.86221E+12
 -1        90-1.42682E+00-1.90558E+00-1.66791E+00-1.68045E-01 1.04532E+13 1.68396E+12
 -1        91-3.50908E+11-3.52725E+11-8.83760E+12 5.29249E+09 1.93724E+13 5.01885E+12
 -1        92-5.37609E+11-1.80578E+12-5.46074E+13 5.87105E+10 2.68925E+11 2.18866E+12
 -1        93 2.31515E+11 4.27761E+11 1.25246E+13 3.99806E+11 1.76878E+13 6.78695E+11
 -1        94 2.34007E+12 2.16711E+12 8.75262E+13 1.32915E+11 5.00759E+12-1.77922E+11
 -1        95-8.03772E-01 2.99988E-01-1.22632E+00-2.34451E-01 1.47080E+13 2.36939E+12
 -1        96 2.65533E+12 1.43713E+12 7.77468E+13 6.44068E+10 4.21300E+12 2.84942E+12
 -1        97 1.34117E+11 2.84056E+10 5.12739E+12-1.67961E+11 2.21045E+13 7.64427E+10
 -1        98 7.61750E+11 1.53819E+12 4.70503E+13 1.68769E+11 1.15752E+13 4.34371E+11
 -1        99 2.93649E+11 1.17540E+12 3.62677E+13-2.68655E+11 2.17281E+12-1.43930E+12
 -1       100 1.61403E+11 1.65371E+11 5.87033E+12-6.49261E+10 1.55917E+13 1.57173E+12
 -1       101 2.78463E+12 1.74497E+12 8.29593E+13-2.39792E+11 4.03198E+12 9.99307E+11
 -1       102 1.16891E+00 1.04233E+00-3.05359E-01 6.32477E-03 1.70307E+13 2.74357E+12
 -1       103 1.02654E+12 1.00191E+12 3.64401E+13-1.04593E+10 9.75652E+12 2.51174E+12
 -1       104 1.76328E+11 8.32534E+11 3.18283E+13-2.70577E+10 4.74519E+11 3.56093E+12
 -1       105 1.09365E+11 1.58297E+11 9.68964E+12 1.44384E+11-2.13422E+13-8.15888E+11
 -1       106 1.05672E+12 9.76052E+11 6.90368E+13 1.32697E+11-6.12794E+12 4.15265E+11
 -1       107 5.37859E+00 4.74710E+00 2.26790E+00-3.95146E+00-1.75521E+13-2.82755E+12
 -1       108 9.82631E+11 6.78885E+11 6.01485E+13 2.32596E+10-5.06463E+12-3.43813E+12
 -1       109 3.27659E+11 7.48904E+10 1.21190E+13-4.51007E+11-1.81369E+12-1.50420E+10
 -1       110 9.66125E+10 3.20329E+11 3.77500E+13 1.09061E+11-1.39631E+13-4.43798E+11
 -1       111 6.63646E+11 2.64095E+12 8.56788E+13-6.03364E+11-4.25955E+11 2.89812E+11
 -1       112 2.70759E+10 2.21275E+10 4.63578E+12-9.98682E+09-1.87369E+13-1.87556E+12
 -1       113 1.15414E+12 8.53315E+11 6.48114E+13-3.08475E+10-4.91573E+12-1.02820E+12
 -1       114 2.56882E+00 2.90442E+00 1.23706E+00-1.87961E+00-1.25291E+12-2.01838E+11
 -1       115 1.37357E+11 1.68074E+11 2.87766E+13-1.60883E+09-1.16426E+13-3.01842E+12
 -1       116 4.64883E+11 2.03394E+12 7.52287E+13-7.26551E+10-9.33736E+10-2.92177E+11
 -1       117-3.19158E+11-4.35542E+11-6.04989E+11 5.16081E+11-1.04036E+13-5.06390E+11
 -1       118-1.33661E+12-2.35078E+12-3.53726E+12 9.31275E+10-3.61415E+12-1.20486E+11
 -1       119-4.11487E+00-1.33477E+01-3.56671E+00 3.05945E+00-8.27327E+12-1.33278E+12
 -1       120-2.70363E+12-1.98118E+12-3.75547E+12 8.31382E+10-3.14342E+12-1.67597E+12
 -1       121-1.42981E+11-1.88226E+11 3.80742E+12 3.52997E+11-1.22007E+13 3.15256E+10
 -1       122-9.75129E+11-2.78864E+12-1.40038E+12 3.78488E+11-7.46825E+12-4.19721E+11
 -1       123-3.91187E+11-8.30572E+11 2.75859E+13 1.72599E+11-7.43080E+11 8.96357E+11
 -1       124-3.75907E+11-2.44089E+11-2.11278E+11 5.93559E+11-8.60336E+12-1.00176E+12
 -1       125-2.34746E+12-2.28938E+12-3.77925E+12 3.25071E+11-2.66168E+12-8.13402E+11
 -1       126-1.32182E+00-7.91268E+00-3.02113E+00-1.66862E-01-9.00635E+12-1.45088E+12
 -1       127-1.51519E+12-2.33345E+12-1.31151E+12 9.56195E+10-6.21845E+12-1.38596E+12
 -1       128-1.16841E+12-8.87558E+11 2.36346E+13 5.68662E+10 1.95696E+11-1.96547E+12
 -1       129 3.32381E+13 3.32381E+13 7.75557E+13 7.23389E+05-2.87807E+13 2.69204E+12
 -1       130-6.47339E+12-6.47339E+12-1.51046E+13 1.80086E+06-2.67840E+13-5.30196E+12
 -1       131 3.96644E+11 1.51440E+11 6.08186E+12-1.31567E+12-3.59132E+13-4.67380E+11
 -1       132-7.05608E+11-2.30726E+12-3.13849E+13-1.10265E+12-6.49709E+12-4.78832E+12
 -1       133 3.76564E+13 3.76565E+13 8.78652E+13 7.70028E+06-3.07036E+13-8.39029E+11
 -1       134-2.87984E+12-2.87984E+12-6.71965E+12 1.19659E+07-2.78374E+13-5.02085E+12
 -1       135-2.98727E+11-1.77820E+11 2.67582E+12-3.48063E+11-3.17598E+13-2.64898E+12
 -1       136-1.45273E+12-2.76665E+12-3.53141E+13-1.25816E+11-3.64825E+12-6.07087E+12
 -1       137 1.06992E+13 1.06992E+13 2.49650E+13 1.90902E+07-2.79161E+13-1.27599E+12
 -1       138-1.09557E+12-4.70784E+11-4.21492E+12 2.53236E+12-2.49315E+13-1.52224E+12
 -1       139 1.48475E+12 1.98360E+12-1.01296E+13-1.25294E+12-2.15786E+13-1.91478E+12
 -1       140 1.08688E+12 6.33366E+12 2.02916E+13 1.88624E+12-9.88321E+12-1.78002E+12
 -1       141 3.51905E+10 3.80458E+11 9.83954E+12 8.08111E+11 1.85070E+13 6.31489E+11
 -1       142-1.62760E+12-6.94488E+11-4.96049E+13 2.30121E+11 5.09045E+12 1.80414E+12
 -1       143 1.31392E+11 1.52482E+11 4.41514E+12 2.06960E+10 1.62862E+13 1.58065E+12
 -1       144-2.16573E+12-4.79894E+11-5.68924E+13-4.66704E+11 3.82338E+12 2.98733E+12
 -1       145 9.24866E+11 3.56625E+11 9.78384E+12-1.05922E+12-6.79837E+12 1.64759E+11
 -1       146-2.80494E+11-6.45977E+11-1.58076E+13 5.45129E+11 1.20953E+13 7.86114E+11
 -1       147-6.48482E+11-5.96603E+12-4.89106E+13-9.21547E+11 5.36383E+11-9.05887E+10
 -1       148-5.85098E+10-1.85847E+11-5.79377E+12-2.98729E+11 3.14503E+13 1.18406E+12
 -1       149 7.74269E+11 5.35242E+11 2.92833E+13-8.97244E+10 9.38706E+12 3.37599E+12
 -1       150-8.12586E+10-8.41237E+10-2.70314E+12 9.03074E+09 2.76445E+13 2.78083E+12
 -1       151 1.03778E+12 4.59607E+11 3.32939E+13 1.82152E+11 7.10482E+12 5.06755E+12
 -1       152-2.22958E+10-1.17388E+10 2.21968E+12 5.88542E+10 2.11514E+13 2.41567E+10
 -1       153 1.96149E+11 4.50262E+11 1.01362E+13-2.03517E+11 2.10816E+13 1.51285E+12
 -1       154 2.28299E+11-2.37733E+11-1.11705E+13-5.65931E+10 2.42576E+12 2.15774E+12
 -1       155-3.37100E+11-5.33354E+11-1.26845E+13-3.54487E+11-9.58484E+12-3.58060E+11
 -1       156 2.15046E+12 2.10995E+12 6.38592E+13-7.22569E+10-2.83654E+12-1.01606E+12
 -1       157-1.86758E+11-1.84753E+11-5.85614E+12 1.06229E+11-8.43037E+12-8.46542E+11
 -1       158 3.04204E+12 2.29928E+12 7.28930E+13 3.27670E+11-2.14822E+12-1.53111E+12
 -1       159-2.84347E+11-7.56479E+10-1.01093E+13 3.46933E+11 9.19598E+12 3.50989E+10
 -1       160 1.21324E+11 7.62019E+11 2.16173E+13-2.21398E+11-6.41162E+12-4.57542E+11
 -1       161-2.33664E+11 2.44675E+12 5.14006E+13 4.29916E+11 1.20510E+12 9.78509E+11
 -1       162 3.83165E+10 5.55002E+10 1.08988E+12 2.66622E+10-3.56537E+13-1.32949E+12
 -1       163-2.22466E+11-2.33223E+11-5.46568E+12 3.25913E+09-1.05119E+13-3.74474E+12
 -1       164 1.82304E+10 1.77476E+10 4.95127E+11-1.26503E+10-3.13441E+13-3.13956E+12
 -1       165-3.17479E+11-2.60021E+11-6.27276E+12-2.97440E+10-7.97779E+12-5.71365E+12
 -1       166-2.07617E+11-5.91323E+10-6.35039E+12 2.65967E+11-1.89286E+13-6.14992E+10
 -1       167-2.18742E+09-6.83912E+10-1.78589E+12 1.52762E+10-2.38057E+13-1.69102E+12
 -1       168-1.10470E+11 1.68014E+12 3.22698E+13 2.89746E+11-2.37338E+12-1.94540E+12
 -1       169 3.38595E+11 5.55824E+11 1.28914E+13 4.02397E+11-2.88614E+12-1.06262E+11
 -1       170-2.24404E+12-2.15655E+12-6.48597E+13 8.40174E+10-8.44249E+11-3.07181E+11
 -1       171 1.97158E+11 1.96216E+11 5.93324E+12-1.03852E+11-2.53443E+12-2.53279E+11
 -1       172-3.16414E+12-2.32202E+12-7.41247E+13-3.57130E+11-6.36048E+11-4.68201E+11
 -1       173 2.52495E+11 7.42674E+10 7.66493E+12-3.18543E+11-1.61447E+13-5.10349E+10
 -1       174-1.54329E+11-8.26023E+11-2.17949E+13 2.53192E+11-1.92475E+12-1.35499E+11
 -1       175 1.47694E+11-2.06803E+12-3.89030E+13-3.58493E+11-2.02263E+12-1.66279E+12
 -1       176 9.87122E+10 1.61831E+11 3.14217E+12 1.08559E+11 3.54327E+13 1.31928E+12
 -1       177-6.62563E+11-6.37906E+11-1.57463E+13 2.03079E+10 1.04276E+13 3.70183E+12
 -1       178 5.68224E+10 5.65296E+10 1.42370E+12-3.28531E+10 3.11546E+13 3.12080E+12
 -1       179-9.23260E+11-6.83398E+11-1.80982E+13-1.00320E+11 7.91304E+12 5.65964E+12
 -1       180 2.90903E+11 8.66063E+10 8.79699E+12-3.64446E+11 1.35861E+13 4.33225E+10
 -1       181-4.72666E+10-2.39122E+11-5.10484E+12 6.63435E+10 2.36518E+13 1.67299E+12
 -1       182 1.71736E+11-2.39981E+12-4.46278E+13-4.15570E+11 1.67846E+12 1.37427E+12
 -1       183-2.31515E+11-4.27761E+11-1.25246E+13-3.99806E+11 1.76878E+13 6.78695E+11
 -1       184 1.74794E+12 1.50855E+12 6.32387E+13-9.60327E+10 5.33328E+12 1.84379E+12
 -1       185-1.61403E+11-1.65371E+11-5.87033E+12 6.49261E+10 1.55917E+13 1.57173E+12
 -1       186 2.42422E+12 1.58599E+12 7.18169E+13 3.08394E+11 4.10315E+12 2.77623E+12
 -1       187-1.34117E+11-2.84056E+10-5.12739E+12 1.67961E+11 2.21045E+13 7.64427E+10
 -1       188 2.25148E+11 6.99070E+11 2.21166E+13-2.57079E+11 1.18615E+13 8.76159E+11
 -1       189-7.94957E+10 1.14090E+12 2.62038E+13 1.94106E+11 2.76468E+12 2.23471E+12
 -1       190-1.09365E+11-1.58297E+11-9.68964E+12-1.44384E+11-2.13422E+13-8.15888E+11
 -1       191 7.90178E+11 6.78525E+11 4.98799E+13-9.58751E+10-6.59184E+12-2.46436E+12
 -1       192-2.70759E+10-2.21275E+10-4.63578E+12 9.98682E+09-1.87369E+13-1.87556E+12
 -1       193 1.10968E+12 8.66828E+11 5.57782E+13 6.85658E+10-5.03087E+12-3.53564E+12
 -1       194-3.27659E+11-7.48904E+10-1.21190E+13 4.51007E+11-1.81369E+12-1.50420E+10
 -1       195-1.80494E+11-4.43631E+10 1.83236E+13-1.25076E+11-1.43670E+13-1.15855E+12
 -1       196-1.74551E+11 2.56216E+12 6.19039E+13 4.35937E+11-5.44515E+11-4.46150E+11
 -1       197 3.19158E+11 4.35542E+11 6.04989E+11-5.16081E+11-1.04036E+13-5.06390E+11
 -1       198-6.30257E+11-2.03393E+12-2.55571E+12-6.72857E+10-3.76688E+12-1.06856E+12
 -1       199 3.75907E+11 2.44089E+11 2.11278E+11-5.93559E+11-8.60336E+12-1.00176E+12
 -1       200-1.55014E+12-2.08882E+12-3.51743E+12-2.17199E+11-2.66468E+12-1.61356E+12
 -1       201 1.42981E+11 1.88226E+11-3.80742E+12-3.52997E+11-1.22007E+13 3.15256E+10
 -1       202-2.69822E+11-2.16075E+12-2.24919E+11-2.91131E+11-7.59715E+12-4.38331E+11
 -1       203-1.37300E+11-7.45435E+11 1.99312E+13-1.24705E+11-1.07917E+12-1.18991E+12
 -1       204-3.32381E+13-3.32381E+13-7.75557E+13-7.23389E+05-2.87807E+13 2.69204E+12
 -1       205 7.05608E+11 2.30726E+12 3.13849E+13 1.10265E+12-6.49709E+12-4.78832E+12
 -1       206-4.01836E+13-4.01836E+13-9.37617E+13 2.90110E+05-3.29120E+13-4.31478E+12
 -1       207 9.40063E+11 2.46217E+12 3.77532E+13-2.11949E+11-2.90126E+12-5.78544E+12
 -1       208-1.06992E+13-1.06992E+13-2.49650E+13-1.90902E+07-2.79161E+13-1.27599E+12
 -1       209-1.08688E+12-6.33366E+12-2.02916E+13-1.88624E+12-9.88321E+12-1.78002E+12
 -1       210-1.48475E+12-1.98360E+12 1.01296E+13 1.25294E+12-2.15786E+13-1.91478E+12
 -1       211-3.76564E+13-3.76565E+13-8.78652E+13-7.70028E+06-3.07036E+13-8.39029E+11
 -1       212 1.45273E+12 2.76665E+12 3.53141E+13 1.25816E+11-3.64825E+12-6.07087E+12
 -1       213-1.78766E+13-1.78766E+13-4.17123E+13 1.92766E+06-3.11670E+13-4.48448E+12
 -1       214-2.92240E+12-6.80078E+12-2.61641E+13 4.07951E+11-9.44930E+12-4.01635E+12
 -1       215-1.10382E+12-1.85435E+12 1.66102E+13-5.60714E+10-1.64436E+13-5.11635E+12
 -1       216 1.62760E+12 6.94488E+11 4.96049E+13-2.30121E+11 5.09045E+12 1.80414E+12
 -1       217 2.36169E+12 2.18445E+11 6.10790E+13 1.30183E+11 3.91998E+12 2.98138E+12
 -1       218 6.48482E+11 5.96603E+12 4.89106E+13 9.21547E+11 5.36383E+11-9.05887E+10
 -1       219 2.80494E+11 6.45977E+11 1.58076E+13-5.45129E+11 1.20953E+13 7.86114E+11
 -1       220 2.16573E+12 4.79894E+11 5.68924E+13 4.66704E+11 3.82338E+12 2.98733E+12
 -1       221 2.21375E+12 5.74111E+12 6.07333E+13-1.70636E+11 1.02274E+12-1.09519E+12
 -1       222 9.46533E+11 8.15618E+11 2.74070E+13 3.33403E+09 9.81187E+12 2.62363E+12
 -1       223-7.74269E+11-5.35242E+11-2.92833E+13 8.97244E+10 9.38706E+12 3.37599E+12
 -1       224-1.15365E+12-3.63200E+11-3.59649E+13-4.81239E+10 7.35003E+12 5.06649E+12
 -1       225-2.28299E+11 2.37733E+11 1.11705E+13 5.65931E+10 2.42576E+12 2.15774E+12
 -1       226-1.96149E+11-4.50262E+11-1.01362E+13 2.03517E+11 2.10816E+13 1.51285E+12
 -1       227-1.03778E+12-4.59607E+11-3.32939E+13-1.82152E+11 7.10482E+12 5.06755E+12
 -1       228-7.28688E+10-1.38401E+11 1.37787E+13 9.48113E+09 1.49953E+11 3.40739E+12
 -1       229-5.22199E+11-5.04413E+11-1.67797E+13 1.45481E+09 1.72620E+13 4.45341E+12
 -1       230-2.15046E+12-2.10995E+12-6.38592E+13 7.22569E+10-2.83654E+12-1.01606E+12
 -1       231-3.31080E+12-2.09255E+12-7.87388E+13-5.71062E+10-2.22266E+12-1.54407E+12
 -1       232 2.33664E+11-2.44675E+12-5.14006E+13-4.29916E+11 1.20510E+12 9.78509E+11
 -1       233-1.21324E+11-7.62019E+11-2.16173E+13 2.21398E+11-6.41162E+12-4.57542E+11
 -1       234-3.04204E+12-2.29928E+12-7.28930E+13-3.27670E+11-2.14822E+12-1.53111E+12
 -1       235-4.69585E+11-1.76509E+12-6.27538E+13 5.58892E+10 2.17877E+11 1.48143E+12
 -1       236-1.14686E+12-1.15930E+12-3.63520E+13 1.71129E+10-5.25492E+12-1.35809E+12
 -1       237 2.22466E+11 2.33223E+11 5.46568E+12-3.25913E+09-1.05119E+13-3.74474E+12
 -1       238 3.44518E+11 2.37850E+11 6.76542E+12 4.29515E+09-8.25281E+12-5.74364E+12
 -1       239 1.10470E+11-1.68014E+12-3.22698E+13-2.89746E+11-2.37338E+12-1.94540E+12
 -1       240 2.18742E+09 6.83912E+10 1.78589E+12-1.52762E+10-2.38057E+13-1.69102E+12
 -1       241 3.17479E+11 2.60021E+11 6.27276E+12 2.97440E+10-7.97779E+12-5.71365E+12
 -1       242-3.67064E+11-1.28879E+12-3.94201E+13 4.28461E+10-3.81757E+11-3.04931E+12
 -1       243 1.10168E+11 1.13165E+11 3.07350E+12-2.03790E+09-1.94888E+13-5.04939E+12
 -1       244 2.24404E+12 2.15655E+12 6.48597E+13-8.40174E+10-8.44249E+11-3.07181E+11
 -1       245 3.45028E+12 2.10183E+12 8.00237E+13 6.48243E+10-6.59620E+11-4.64943E+11
 -1       246-1.47694E+11 2.06803E+12 3.89030E+13 3.58493E+11-2.02263E+12-1.66279E+12
 -1       247 1.54329E+11 8.26023E+11 2.17949E+13-2.53192E+11-1.92475E+12-1.35499E+11
 -1       248 3.16414E+12 2.32202E+12 7.41247E+13 3.57130E+11-6.36048E+11-4.68201E+11
 -1       249 4.61016E+11 1.56736E+12 4.75801E+13-5.13158E+10-3.16799E+11-2.60084E+12
 -1       250 1.21801E+12 1.22386E+12 3.68306E+13-1.67300E+10-1.57223E+12-4.08285E+11
 -1       251 6.62563E+11 6.37906E+11 1.57463E+13-2.03079E+10 1.04276E+13 3.70183E+12
 -1       252 1.00457E+12 6.12757E+11 1.95050E+13 1.74883E+10 8.18942E+12 5.70804E+12
 -1       253-1.71736E+11 2.39981E+12 4.46278E+13 4.15570E+11 1.67846E+12 1.37427E+12
 -1       254 4.72666E+10 2.39122E+11 5.10484E+12-6.63435E+10 2.36518E+13 1.67299E+12
 -1       255 9.23260E+11 6.83398E+11 1.80982E+13 1.00320E+11 7.91304E+12 5.65964E+12
 -1       256 5.37609E+11 1.80578E+12 5.46074E+13-5.87105E+10 2.68925E+11 2.18866E+12
 -1       257 3.50908E+11 3.52725E+11 8.83760E+12-5.29249E+09 1.93724E+13 5.01885E+12
 -1       258-1.74794E+12-1.50855E+12-6.32387E+13 9.60327E+10 5.33328E+12 1.84379E+12
 -1       259-2.65533E+12-1.43713E+12-7.77468E+13-6.44068E+10 4.21300E+12 2.84942E+12
 -1       260 7.94957E+10-1.14090E+12-2.62038E+13-1.94106E+11 2.76468E+12 2.23471E+12
 -1       261-2.25148E+11-6.99070E+11-2.21166E+13 2.57079E+11 1.18615E+13 8.76159E+11
 -1       262-2.42422E+12-1.58599E+12-7.18169E+13-3.08394E+11 4.10315E+12 2.77623E+12
 -1       263-1.76328E+11-8.32534E+11-3.18283E+13 2.70577E+10 4.74519E+11 3.56093E+12
 -1       264-1.02654E+12-1.00191E+12-3.64401E+13 1.04593E+10 9.75652E+12 2.51174E+12
 -1       265-7.90178E+11-6.78525E+11-4.98799E+13 9.58751E+10-6.59184E+12-2.46436E+12
 -1       266-9.82631E+11-6.78885E+11-6.01485E+13-2.32596E+10-5.06463E+12-3.43813E+12
 -1       267 1.74551E+11-2.56216E+12-6.19039E+13-4.35937E+11-5.44515E+11-4.46150E+11
 -1       268 1.80494E+11 4.43631E+10-1.83236E+13 1.25076E+11-1.43670E+13-1.15855E+12
 -1       269-1.10968E+12-8.66828E+11-5.57782E+13-6.85658E+10-5.03087E+12-3.53564E+12
 -1       270-4.64883E+11-2.03394E+12-7.52287E+13 7.26551E+10-9.33736E+10-2.92177E+11
 -1       271-1.37357E+11-1.68074E+11-2.87766E+13 1.60883E+09-1.16426E+13-3.01842E+12
 -1       272 6.30257E+11 2.03393E+12 2.55571E+12 6.72857E+10-3.76688E+12-1.06856E+12
 -1       273 2.70363E+12 1.98118E+12 3.75547E+12-8.31382E+10-3.14342E+12-1.67597E+12
 -1       274 1.37300E+11 7.45435E+11-1.99312E+13 1.24705E+11-1.07917E+12-1.18991E+12
 -1       275 2.69822E+11 2.16075E+12 2.24919E+11 2.91131E+11-7.59715E+12-4.38331E+11
 -1       276 1.55014E+12 2.08882E+12 3.51743E+12 2.17199E+11-2.66468E+12-1.61356E+12
 -1       277 1.16841E+12 8.87558E+11-2.36346E+13-5.68662E+10 1.95696E+11-1.96547E+12
 -1       278 1.51519E+12 2.33345E+12 1.31151E+12-9.56195E+10-6.21845E+12-1.38596E+12
 -1       279-4.60036E+13-4.60036E+13-1.07342E+14 1.00121E+06-3.12048E+13-1.23554E+13
 -1       280 1.50639E+12 2.66360E+12 4.34386E+13-1.52614E+12-5.25944E+12 2.89440E+12
 -1       281-4.32020E+13-4.32021E+13-1.00805E+14 1.44252E+07-3.19177E+13-8.35019E+12
 -1       282 8.74014E+11 2.42296E+12 4.05465E+13-5.46961E+11-3.20929E+12-7.43291E+11
 -1       283-2.37251E+13-2.37251E+13-5.53588E+13 2.26545E+07-2.91261E+13-8.81200E+12
 -1       284-3.23981E+12-7.03067E+12-2.80848E+13 2.61067E+12-9.82107E+12-1.39425E+12
 -1       285-6.48730E+11-1.60877E+12 2.23504E+13-1.36132E+12-2.07204E+13 8.10063E+11
 -1       286 1.94404E+12 1.26986E+12 6.86562E+13 3.18502E+11 4.76494E+12-2.16484E+11
 -1       287 2.49481E+12 5.98247E+11 6.51527E+13-3.11258E+11 3.76709E+12 8.54300E+11
 -1       288 2.65645E+12 6.49843E+12 6.76953E+13-1.27548E+12 5.94929E+11 2.72838E+11
 -1       289 4.54177E+11 1.39677E+12 3.54684E+13 4.19803E+11 1.17517E+13 4.36676E+11
 -1       290-9.92572E+11-8.19872E+11-4.05299E+13-1.24184E+11 8.77057E+12-4.50881E+11
 -1       291-1.24201E+12-5.48978E+11-3.84208E+13 1.24540E+11 6.98299E+12 1.63568E+12
 -1       292-1.61828E+11 1.74886E+11 1.54607E+13-7.83282E+10 1.84130E+12-1.47033E+12
 -1       293-3.58627E+11-8.17524E+11-2.16891E+13-1.54110E+11 2.05287E+13 7.56627E+11
 -1       294-2.96297E+12-2.93370E+12-8.83850E+13-1.00008E+11-2.65161E+12 1.31942E+11
 -1       295-3.45620E+12-2.46193E+12-8.39277E+13 2.71898E+11-2.11134E+12-5.08099E+11
 -1       296-5.63208E+11-2.49984E+12-7.11416E+13 5.95030E+11 9.45649E+11-6.32033E+11
 -1       297-8.88332E+11-1.80885E+12-4.68804E+13-1.24811E+11-6.24681E+12-2.28653E+11
 -1       298 3.11464E+11 3.19236E+11 7.56483E+12 4.51084E+09-9.83332E+12 4.67228E+11
 -1       299 3.57018E+11 2.74600E+11 7.19774E+12-2.62760E+10-7.84355E+12-1.85622E+12
 -1       300-4.39392E+11-1.73313E+12-4.46634E+13 4.01027E+11-1.85636E+12 1.26401E+12
 -1       301 8.83125E+10 1.77050E+11 3.95593E+12 6.25162E+09-2.31843E+13-8.57727E+11
 -1       302 3.07695E+12 3.01373E+12 8.97698E+13 1.16285E+11-7.87628E+11 4.42934E+10
 -1       303 3.60597E+12 2.49680E+12 8.52838E+13-2.92411E+11-6.25121E+11-1.43509E+11
 -1       304 5.28486E+11 2.12937E+12 5.38442E+13-4.96176E+11-1.58040E+12 1.08236E+12
 -1       305 9.30619E+11 1.91666E+12 4.74748E+13 1.48554E+11-1.87244E+12-6.76698E+10
 -1       306 9.08872E+11 8.91057E+11 2.17938E+13 2.81074E+10 9.75881E+12-4.49891E+11
 -1       307 1.05155E+12 7.35448E+11 2.07512E+13-8.37214E+10 7.78131E+12 1.86221E+12
 -1       308 6.12908E+11 2.47088E+12 6.17676E+13-5.75175E+11 1.31333E+12-8.92312E+11
 -1       309 2.75836E+11 5.57255E+11 1.13633E+13 3.66953E+10 2.30401E+13 8.55292E+11
 -1       310-2.34007E+12-2.16711E+12-8.75262E+13-1.32915E+11 5.00759E+12-1.77922E+11
 -1       311-2.78463E+12-1.74497E+12-8.29593E+13 2.39792E+11 4.03198E+12 9.99307E+11
 -1       312-2.93649E+11-1.17540E+12-3.62677E+13 2.68655E+11 2.17281E+12-1.43930E+12
 -1       313-7.61750E+11-1.53819E+12-4.70503E+13-1.68769E+11 1.15752E+13 4.34371E+11
 -1       314-1.05672E+12-9.76052E+11-6.90368E+13-1.32697E+11-6.12794E+12 4.15265E+11
 -1       315-1.15414E+12-8.53315E+11-6.48114E+13 3.08475E+10-4.91573E+12-1.02820E+12
 -1       316-6.63646E+11-2.64095E+12-8.56788E+13 6.03364E+11-4.25955E+11 2.89812E+11
 -1       317-9.66125E+10-3.20329E+11-3.77500E+13-1.09061E+11-1.39631E+13-4.43798E+11
 -1       318 1.33661E+12 2.35078E+12 3.53726E+12-9.31275E+10-3.61415E+12-1.20486E+11
 -1       319 2.34746E+12 2.28938E+12 3.77925E+12-3.25071E+11-2.66168E+12-8.13402E+11
 -1       320 3.91187E+11 8.30572E+11-2.75859E+13-1.72599E+11-7.43080E+11 8.96357E+11
 -1       321 9.75129E+11 2.78864E+12 1.40038E+12-3.78488E+11-7.46825E+12-4.19721E+11
 -3
    1PSTEP                        47           1           1          
    1PGM                1.000000E+00                                  
    1PGK                5.411283E+10                                  
    1PHID                         -1                                  
    1PSUBC                         0                                  
    1PMODE                        12                                  
  100CL  112 37022.88488         321                     2   12MODAL      1
 -4  TOSTRAIN    6    1
 -5  EXX         1    4    1    1
 -5  EYY         1    4    2    2
 -5  EZZ         1    4    3    3
 -5  EXY         1    4    1    2
 -5  EYZ         1    4    2    3
 -5  EZX         1    4    3    1
 -1         1-2.46845E-06 3.53418E-06 3.79712E+02-6.19799E-06-1.93173E+02-7.64860E+01
 -1         2-1.54686E-06-3.47094E-07 5.34311E+01-1.11482E-05-1.65806E+02-3.28217E+01
 -1         3 7.01593E+00 8.53387E+00-2.81783E+01 8.14464E+00-2.22320E+02-2.89330E+00
 -1         4 5.86870E+01 5.15234E+01-2.00893E+02 9.44751E+00-3.25585E+01 1.79177E+01
 -1         5-2.15459E-06-9.60216E-06 3.31674E+02-1.79592E-06-2.03741E+02-2.67106E+01
 -1         6-3.92603E-14-3.30291E-15 1.18988E-12-3.07627E-14-1.80543E+02-2.90845E+01
 -1         7-1.09984E-12-2.48335E-12 3.66336E-12 1.36646E-12-1.82303E+02-2.93682E+01
 -1         8 5.29740E+01 4.35515E+01-1.74917E+02 1.31206E+00-1.79602E+01-3.58146E+01
 -1         9-3.30664E-04-2.39197E-04 1.95827E+02-1.40242E-04-1.80304E+02-5.45505E+01
 -1        10-1.47684E+00-5.34458E+00 1.78334E+01-1.56765E+01-1.54338E+02-9.42337E+00
 -1        11 3.27200E+01 3.86631E+01-1.09655E+02 8.42722E+00-1.28269E+02 5.01468E+00
 -1        12-3.47373E+01-1.12701E+01 1.19065E+02-1.61613E+01-6.07971E+01-8.63107E+00
 -1        13-4.66848E-04-2.45860E-04 3.56589E+02-8.92985E-05-1.97585E+02-5.16917E+01
 -1        14-2.91046E-05-4.83227E-05 2.37702E+01-7.40748E-05-1.72327E+02-3.10815E+01
 -1        15 4.99108E+00 4.24261E+00-1.34228E+01 2.15468E+00-1.96608E+02-1.63985E+01
 -1        16 5.72229E+01 4.76343E+01-1.88369E+02 3.38595E+00-1.98670E+01-4.60132E+00
 -1        17-2.99963E-04-1.80667E-04 1.47554E+02-1.19331E-05-1.92939E+02-2.77610E+01
 -1        18-7.98472E-13-8.05578E-13 2.26696E-12 1.14531E-12-1.39384E+02-2.24542E+01
 -1        19 2.63360E+01 3.09822E+01-8.33220E+01 3.47109E-01-1.01794E+02-3.16727E+01
 -1        20-3.31765E+01-9.16748E+00 1.10701E+02-2.52541E+00-5.84956E+01-2.48631E+01
 -1        21 1.44324E+01 1.22951E+01-4.62612E+01-5.00259E+00 1.14567E+02 3.90922E+00
 -1        22 9.06370E+01 9.48105E+01-3.22343E+02-1.97168E+00 2.94972E+01-1.34014E+00
 -1        23 4.34547E-12-6.13065E-12 2.71203E-12-5.41900E-13 9.46115E+01 1.52415E+01
 -1        24 7.63217E+01 8.95894E+01-2.87167E+02-8.05894E-01 2.42665E+01 1.84562E+01
 -1        25 1.00823E+01 1.35999E+01-4.47590E+01 6.55709E+00-4.20851E+01 1.01993E+00
 -1        26 5.05018E+01 4.46667E+01-1.66253E+02-2.59878E+00 7.27485E+01 2.70323E+00
 -1        27 9.33412E+01 6.95575E+01-3.09280E+02 7.89581E+00 3.68289E+00 1.68900E+00
 -1        28 5.89950E+00 5.76894E+00-2.06189E+01-1.28118E-01 1.00819E+02 9.78495E+00
 -1        29 8.20499E+01 9.37905E+01-3.05832E+02 1.92683E+00 2.33201E+01 5.28853E+00
 -1        30 1.74925E-12-4.64584E-12 2.81142E-12 1.52234E-12-3.51107E+01-5.65617E+00
 -1        31 3.58107E+01 3.66212E+01-1.27992E+02-2.06392E-02 6.07402E+01 1.62415E+01
 -1        32 8.44217E+01 6.25857E+01-2.77842E+02 1.05632E+00 6.33125E+00-6.77972E+00
 -1        33-8.26369E+00-7.47541E+00 2.72403E+01 1.84928E+00 1.94692E+02 7.32987E+00
 -1        34-5.43446E+01-5.54137E+01 1.90410E+02 7.68758E-01 5.42940E+01-2.79117E+00
 -1        35 1.06454E-12-8.41216E-13-7.46828E-13-4.57512E-12 1.61199E+02 2.59684E+01
 -1        36-4.64037E+01-5.12969E+01 1.69094E+02 2.97910E-01 4.55002E+01 3.13640E+01
 -1        37 3.26037E+00 3.19501E+00-1.06185E+01-3.64335E-01 1.30937E+02 1.49542E-01
 -1        38-3.04446E+01-2.76038E+01 1.01601E+02 9.54016E-01 1.27083E+02 4.68388E+00
 -1        39 2.31071E+01 2.10227E+01-7.36035E+01 4.84889E-01 1.13985E+01-9.10206E+00
 -1        40-3.59485E+00-3.57712E+00 1.26358E+01-5.59046E-02 1.71133E+02 1.72147E+01
 -1        41-4.97568E+01-5.40470E+01 1.80398E+02-7.70962E-01 4.32281E+01 1.01256E+01
 -1        42 2.97223E-12-3.01414E-12 1.45923E-12-1.19668E-12 1.00398E+02 1.61737E+01
 -1        43-2.22050E+01-2.23151E+01 7.84369E+01-9.00596E-03 1.06860E+02 2.75687E+01
 -1        44 1.98331E+01 2.02387E+01-6.59144E+01-5.86927E-02 9.28281E-01 2.10934E+01
 -1        45-1.72773E+01-1.60624E+01 5.91587E+01 2.19444E+00-5.93347E+01-2.21656E+00
 -1        46-1.16346E+02-1.16527E+02 4.12457E+02 6.19097E-01-1.64147E+01 8.16785E-01
 -1        47 3.10463E-12-7.25664E-12 1.65053E-12-6.88338E-15-4.91734E+01-7.92160E+00
 -1        48-9.97077E+01-1.07249E+02 3.67228E+02 3.53515E-01-1.37593E+01-9.55854E+00
 -1        49-1.31959E+01-1.44879E+01 4.76254E+01-2.14768E+00 5.69275E+01 2.17279E-01
 -1        50-6.53260E+01-5.96275E+01 2.19387E+02 7.72637E-01-3.86708E+01-1.41547E+00
 -1        51-1.02520E+02-9.05314E+01 3.34393E+02-3.68352E+00 5.85401E+00-3.91259E+00
 -1        52-7.74052E+00-7.75293E+00 2.73556E+01-6.57606E-01-5.21880E+01-5.24050E+00
 -1        53-1.06956E+02-1.13111E+02 3.91201E+02-1.68318E+00-1.30702E+01-3.14538E+00
 -1        54 2.95819E-12-3.22320E-12 1.66422E-13-2.41979E-12 4.36080E+01 7.02504E+00
 -1        55-4.81264E+01-4.80494E+01 1.69810E+02-1.05937E-01-3.25304E+01-8.40724E+00
 -1        56-8.99337E+01-8.19139E+01 2.95635E+02-3.45981E-01 1.34876E+00 9.17075E+00
 -1        57 1.45379E+00 1.34742E+00-5.05587E+00-1.65052E-01-2.20713E+02-8.23017E+00
 -1        58 9.77978E+00 9.73167E+00-3.51220E+01-2.79242E-02-6.08730E+01 2.89236E+00
 -1        59 1.46741E-11 2.71779E-11-4.98546E-12 8.97576E-12-1.82695E+02-2.94312E+01
 -1        60 8.36411E+00 9.02444E+00-3.13843E+01-2.65890E-02-5.10888E+01-3.55558E+01
 -1        61-8.16781E+00-9.08700E+00 2.98589E+01-1.64646E+00-1.17177E+02-3.80709E-01
 -1        62 5.48372E+00 4.93439E+00-1.84587E+01-3.87005E-02-1.43522E+02-5.30974E+00
 -1        63-6.41884E+01-5.61796E+01 2.09579E+02-2.48255E+00-1.14917E+01 7.82481E+00
 -1        64 6.45866E-01 6.48855E-01-2.30635E+00 7.83114E-02-1.94035E+02-1.94353E+01
 -1        65 8.97469E+00 9.48489E+00-3.33727E+01 1.62661E-01-4.85553E+01-1.14909E+01
 -1        66 8.63973E-12 9.19187E-12-1.50691E-12 1.97703E-12-9.00385E+01-1.45048E+01
 -1        67 4.02777E+00 4.00922E+00-1.43167E+01 1.26156E-02-1.20645E+02-3.12581E+01
 -1        68-5.64076E+01-5.07017E+01 1.85349E+02-2.65237E-01-2.36326E+00-1.88767E+01
 -1        69 1.75980E+01 1.62533E+01-6.01100E+01-2.49103E+00-1.78666E+01-6.57810E-01
 -1        70 1.17896E+02 1.18287E+02-4.18774E+02-7.19860E-01-4.87579E+00 2.74197E-01
 -1        71-1.27872E-11 2.76312E-12-1.15619E-12-3.51885E-12-1.47615E+01-2.37801E+00
 -1        72 1.00892E+02 1.09240E+02-3.73133E+02-4.01293E-01-4.08336E+00-2.87822E+00
 -1        73 9.85364E+00 1.09570E+01-3.60329E+01 1.97194E+00-9.99434E+01-3.15930E-01
 -1        74 6.61277E+01 6.00237E+01-2.22003E+02-9.19620E-01-1.15913E+01-4.18908E-01
 -1        75 7.74456E+01 6.75353E+01-2.52604E+02 3.07156E+00-9.78343E+00 6.70029E+00
 -1        76 7.81751E+00 7.82335E+00-2.76915E+01 6.42892E-01-1.56893E+01-1.56792E+00
 -1        77 1.08229E+02 1.15096E+02-3.97395E+02 1.81016E+00-3.86980E+00-8.88390E-01
 -1        78 3.49998E-13 1.10505E-11-2.58910E-12 3.01026E-12-7.67428E+01-1.23629E+01
 -1        79 4.85635E+01 4.85273E+01-1.71895E+02 1.03567E-01-9.73286E+00-2.52748E+00
 -1        80 6.80154E+01 6.11666E+01-2.23674E+02 3.17669E-01-1.96114E+00-1.61004E+01
 -1        81 4.24994E+00 3.85920E+00-1.45905E+01-6.72030E-01 2.19345E+02 8.16695E+00
 -1        82 2.80790E+01 2.81893E+01-1.01209E+02-1.73998E-01 6.04117E+01-2.78504E+00
 -1        83 9.78084E-12-3.56881E-12-5.10289E-12 3.79485E-12 1.81641E+02 2.92615E+01
 -1        84 2.39560E+01 2.63815E+01-9.05706E+01-1.08261E-01 5.06964E+01 3.53355E+01
 -1        85 1.13056E+01 1.25703E+01-4.13511E+01 2.25609E+00 8.41046E+01 2.68187E-01
 -1        86 1.57159E+01 1.39737E+01-5.29208E+01-2.27161E-01 1.42629E+02 5.29467E+00
 -1        87 8.88507E+01 7.73490E+01-2.89726E+02 3.56061E+00 8.13011E+00-5.52384E+00
 -1        88 1.84402E+00 1.84584E+00-6.61757E+00 2.03377E-01 1.92862E+02 1.93192E+01
 -1        89 2.56878E+01 2.76446E+01-9.62623E+01 5.18275E-01 4.81700E+01 1.15280E+01
 -1        90-1.69070E-12-4.65405E-12-3.18218E-12-1.04000E-12 6.47104E+01 1.04245E+01
 -1        91 1.14580E+01 1.14468E+01-4.10786E+01 3.27630E-02 1.19924E+02 3.10691E+01
 -1        92 7.80302E+01 7.01796E+01-2.56688E+02 3.63446E-01 1.66477E+00 1.35488E+01
 -1        93-1.74010E+01-1.61861E+01 5.86993E+01 2.47499E+00 1.09496E+02 4.20144E+00
 -1        94-1.16990E+02-1.18061E+02 4.10353E+02 8.22808E-01 3.09994E+01-1.10142E+00
 -1        95-2.50588E-12 4.33009E-12-5.11613E-12-1.45128E-12 9.10496E+01 1.46677E+01
 -1        96-1.00476E+02-1.08017E+02 3.64377E+02 3.98709E-01 2.60805E+01 1.76393E+01
 -1        97-6.72676E+00-7.38117E+00 2.41840E+01-1.03976E+00 1.36837E+02 4.73217E-01
 -1        98-6.57848E+01-6.09782E+01 2.20763E+02 1.04476E+00 7.16561E+01 2.68896E+00
 -1        99-5.20918E+01-4.66334E+01 1.70605E+02-1.66310E+00 1.34507E+01-8.90998E+00
 -1       100-7.85384E+00-7.82928E+00 2.74871E+01-4.01923E-01 9.65199E+01 9.72975E+00
 -1       101-1.07746E+02-1.14182E+02 3.88574E+02-1.48442E+00 2.49599E+01 6.18619E+00
 -1       102 4.51207E-12 3.73257E-12-4.61636E-12 3.92741E-14 1.05428E+02 1.69840E+01
 -1       103-4.86003E+01-4.87528E+01 1.70626E+02-6.47480E-02 6.03975E+01 1.55489E+01
 -1       104-4.58187E+01-4.17564E+01 1.50122E+02-1.67500E-01 2.93750E+00 2.20439E+01
 -1       105-1.35477E+01-1.32448E+01 4.57588E+01 8.93805E-01-1.32118E+02-5.05074E+00
 -1       106-9.49863E+01-9.54857E+01 3.25842E+02 8.21457E-01-3.79349E+01 2.57068E+00
 -1       107 1.55901E-11 1.16791E-11-3.66520E-12-2.44614E-11-1.08656E+02-1.75039E+01
 -1       108-8.22171E+01-8.40974E+01 2.84048E+02 1.43988E-01-3.13525E+01-2.12836E+01
 -1       109-1.58595E+01-1.74243E+01 5.71344E+01-2.79195E+00-1.12276E+01-9.31174E-02
 -1       110-5.39261E+01-5.25412E+01 1.79166E+02 6.75139E-01-8.64381E+01-2.74732E+00
 -1       111-1.23011E+02-1.10770E+02 4.03274E+02-3.73511E+00-2.63686E+00 1.79408E+00
 -1       112-6.52522E+00-6.55585E+00 2.20048E+01-6.18232E-02-1.15990E+02-1.16106E+01
 -1       113-8.83109E+01-9.01731E+01 3.05758E+02-1.90960E-01-3.04307E+01-6.36506E+00
 -1       114 6.31567E-12 8.39373E-12-1.92263E-12-1.16356E-11-7.75610E+00-1.24947E+00
 -1       115-4.06955E+01-4.05053E+01 1.36595E+02-9.95942E-03-7.20731E+01-1.86855E+01
 -1       116-1.08161E+02-9.84482E+01 3.54662E+02-4.49770E-01-5.78027E-01-1.80871E+00
 -1       117-3.33282E-02-7.53801E-01-1.80276E+00 3.19479E+00-6.44032E+01-3.13479E+00
 -1       118 2.04666E+00-4.23153E+00-1.15764E+01 5.76504E-01-2.23733E+01-7.45867E-01
 -1       119 4.57245E-12-5.25837E-11 7.95568E-12 1.89404E-11-5.12155E+01-8.25057E+00
 -1       120-4.67923E+00-2.06885E-01-1.11906E+01 5.14665E-01-1.94592E+01-1.03750E+01
 -1       121-5.85114E+00-6.13122E+00 1.86037E+01 2.18522E+00-7.55280E+01 1.95159E-01
 -1       122 1.34084E+00-9.88564E+00-1.29167E+00 2.34302E+00-4.62320E+01-2.59827E+00
 -1       123-4.00847E+01-4.28047E+01 1.33107E+02 1.06847E+00-4.60002E+00 5.54888E+00
 -1       124-1.13951E+00-3.23495E-01-1.20375E-01 3.67441E+00-5.32589E+01-6.20139E+00
 -1       125-2.50891E+00-2.14934E+00-1.13724E+01 2.01235E+00-1.64771E+01-5.03535E+00
 -1       126 9.32356E-12-3.14745E-11-1.19484E-12-1.03292E-12-5.57536E+01-8.98164E+00
 -1       127-2.00810E+00-7.07351E+00-7.47230E-01 5.91930E-01-3.84952E+01-8.57976E+00
 -1       128-3.80596E+01-3.63210E+01 1.15483E+02 3.52029E-01 1.21145E+00-1.21672E+01
 -1       129-3.76900E-06 4.53900E-06 2.74347E+02 4.47812E-06-1.78166E+02 1.66650E+01
 -1       130 1.54686E-06 3.47094E-07-5.34311E+01 1.11482E-05-1.65806E+02-3.28217E+01
 -1       131-7.01593E+00-8.53387E+00 2.81783E+01-8.14464E+00-2.22320E+02-2.89330E+00
 -1       132 4.47716E+01 3.48567E+01-1.45148E+02-6.82594E+00-4.02201E+01-2.96420E+01
 -1       133-4.12605E-04-1.49586E-04 3.10816E+02 4.76684E-05-1.90070E+02-5.19399E+00
 -1       134 2.91046E-05 4.83227E-05-2.37702E+01 7.40748E-05-1.72327E+02-3.10815E+01
 -1       135-4.99108E+00-4.24261E+00 1.34228E+01-2.15468E+00-1.96608E+02-1.63985E+01
 -1       136 4.74834E+01 3.93495E+01-1.62135E+02-7.78863E-01-2.25844E+01-3.75816E+01
 -1       137-2.66960E-04-9.75210E-05 8.83116E+01 1.18177E-04-1.72814E+02-7.89898E+00
 -1       138 1.47684E+00 5.34458E+00-1.78334E+01 1.56765E+01-1.54338E+02-9.42337E+00
 -1       139 1.87073E+01 2.17955E+01-5.31908E+01-7.75629E+00-1.33582E+02-1.18534E+01
 -1       140-3.28605E+01-3.80451E-01 8.60260E+01 1.16767E+01-6.11818E+01-1.10191E+01
 -1       141-1.44324E+01-1.22951E+01 4.62612E+01 5.00259E+00 1.14567E+02 3.90922E+00
 -1       142 6.41058E+01 6.98822E+01-2.32896E+02 1.42456E+00 3.15123E+01 1.11685E+01
 -1       143-5.89950E+00-5.76894E+00 2.06189E+01 1.28118E-01 1.00819E+02 9.78495E+00
 -1       144 7.16474E+01 8.20835E+01-2.67137E+02-2.88912E+00 2.36686E+01 1.84930E+01
 -1       145-1.00823E+01-1.35999E+01 4.47590E+01-6.55709E+00-4.20851E+01 1.01993E+00
 -1       146 2.21694E+01 1.99068E+01-7.39505E+01 3.37461E+00 7.48756E+01 4.86642E+00
 -1       147 7.53072E+01 4.23891E+01-2.23458E+02-5.70482E+00 3.32047E+00-5.60787E-01
 -1       148 8.26369E+00 7.47541E+00-2.72403E+01-1.84928E+00 1.94692E+02 7.32987E+00
 -1       149-3.89110E+01-4.03907E+01 1.37574E+02-5.55436E-01 5.81104E+01 2.08990E+01
 -1       150 3.59485E+00 3.57712E+00-1.26358E+01 5.59046E-02 1.71133E+02 1.72147E+01
 -1       151-4.32775E+01-4.68567E+01 1.56403E+02 1.12761E+00 4.39822E+01 3.13705E+01
 -1       152-3.26037E+00-3.19501E+00 1.06185E+01 3.64335E-01 1.30937E+02 1.49542E-01
 -1       153-1.41895E+01-1.26164E+01 4.73442E+01-1.25987E+00 1.30505E+02 9.36528E+00
 -1       154 1.73846E+01 1.44997E+01-5.31794E+01-3.50338E-01 1.50166E+01 1.33574E+01
 -1       155 1.72773E+01 1.60624E+01-5.91587E+01-2.19444E+00-5.93347E+01-2.21656E+00
 -1       156-8.40014E+01-8.42522E+01 2.98005E+02-4.47305E-01-1.75596E+01-6.28988E+00
 -1       157 7.74052E+00 7.75293E+00-2.73556E+01 6.57606E-01-5.21880E+01-5.24050E+00
 -1       158-9.29317E+01-9.75298E+01 3.39479E+02 2.02844E+00-1.32985E+01-9.47832E+00
 -1       159 1.31959E+01 1.44879E+01-4.76254E+01 2.14768E+00 5.69275E+01 2.17279E-01
 -1       160-3.13928E+01-2.74266E+01 1.01678E+02-1.37056E+00-3.96910E+01-2.83240E+00
 -1       161-7.80375E+01-6.14444E+01 2.41603E+02 2.66139E+00 7.46014E+00 6.05743E+00
 -1       162-1.45379E+00-1.34742E+00 5.05587E+00 1.65052E-01-2.20713E+02-8.23017E+00
 -1       163 7.08192E+00 7.01533E+00-2.53760E+01 2.01756E-02-6.50734E+01-2.31817E+01
 -1       164-6.45866E-01-6.48855E-01 2.30635E+00-7.83114E-02-1.94035E+02-1.94353E+01
 -1       165 7.82074E+00 8.17643E+00-2.90453E+01-1.84130E-01-4.93863E+01-3.53702E+01
 -1       166 8.16781E+00 9.08700E+00-2.98589E+01 1.64646E+00-1.17177E+02-3.80709E-01
 -1       167 2.63856E+00 2.22873E+00-8.40343E+00 9.45669E-02-1.47369E+02-1.04682E+01
 -1       168-4.90260E+01-3.79413E+01 1.51423E+02 1.79367E+00-1.46923E+01-1.20429E+01
 -1       169-1.75980E+01-1.62533E+01 6.01100E+01 2.49103E+00-1.78666E+01-6.57810E-01
 -1       170 8.50516E+01 8.55932E+01-3.02569E+02 5.20107E-01-5.22630E+00-1.90160E+00
 -1       171-7.81751E+00-7.82335E+00 2.76915E+01-6.42892E-01-1.56893E+01-1.56792E+00
 -1       172 9.41423E+01 9.93554E+01-3.45138E+02-2.21081E+00-3.93744E+00-2.89839E+00
 -1       173-9.85364E+00-1.09570E+01 3.60329E+01-1.97194E+00-9.99434E+01-3.15930E-01
 -1       174 3.15807E+01 2.74226E+01-1.02385E+02 1.56738E+00-1.19151E+01-8.38801E-01
 -1       175 5.92334E+01 4.55170E+01-1.82509E+02-2.21924E+00-1.25210E+01-1.02934E+01
 -1       176-4.24994E+00-3.85920E+00 1.45905E+01 6.72030E-01 2.19345E+02 8.16695E+00
 -1       177 2.02509E+01 2.04035E+01-7.31244E+01 1.25716E-01 6.45520E+01 2.29161E+01
 -1       178-1.84402E+00-1.84584E+00 6.61757E+00-2.03377E-01 1.92862E+02 1.93192E+01
 -1       179 2.24344E+01 2.39193E+01-8.38869E+01-6.21031E-01 4.89855E+01 3.50358E+01
 -1       180-1.13056E+01-1.25703E+01 4.13511E+01-2.25609E+00 8.41046E+01 2.68187E-01
 -1       181 7.40915E+00 6.22147E+00-2.38996E+01 4.10698E-01 1.46416E+02 1.03566E+01
 -1       182 6.80001E+01 5.20811E+01-2.09331E+02-2.57258E+00 1.03905E+01 8.50741E+00
 -1       183 1.74010E+01 1.61861E+01-5.86993E+01-2.47499E+00 1.09496E+02 4.20144E+00
 -1       184-8.41726E+01-8.56545E+01 2.96485E+02-5.94488E-01 3.30156E+01 1.14139E+01
 -1       185 7.85384E+00 7.82928E+00-2.74871E+01 4.01923E-01 9.65199E+01 9.72975E+00
 -1       186-9.33173E+01-9.85064E+01 3.36256E+02 1.90911E+00 2.54004E+01 1.71862E+01
 -1       187 6.72676E+00 7.38117E+00-2.41840E+01 1.03976E+00 1.36837E+02 4.73217E-01
 -1       188-3.15217E+01-2.85879E+01 1.03997E+02-1.59144E+00 7.34281E+01 5.42384E+00
 -1       189-3.94425E+01-3.18876E+01 1.23264E+02 1.20161E+00 1.71147E+01 1.38339E+01
 -1       190 1.35477E+01 1.32448E+01-4.57588E+01-8.93805E-01-1.32118E+02-5.05074E+00
 -1       191-6.84635E+01-6.91547E+01 2.35425E+02-5.93512E-01-4.08066E+01-1.52556E+01
 -1       192 6.52522E+00 6.55585E+00-2.20048E+01 6.18232E-02-1.15990E+02-1.16106E+01
 -1       193-7.56373E+01-7.71407E+01 2.62787E+02 4.24455E-01-3.11435E+01-2.18873E+01
 -1       194 1.58595E+01 1.74243E+01-5.71344E+01 2.79195E+00-1.12276E+01-9.31174E-02
 -1       195-2.69727E+01-2.61299E+01 8.75763E+01-7.74279E-01-8.89387E+01-7.17199E+00
 -1       196-9.29256E+01-7.59841E+01 2.91370E+02 2.69866E+00-3.37081E+00-2.76188E+00
 -1       197 3.33282E-02 7.53801E-01 1.80276E+00-3.19479E+00-6.44032E+01-3.13479E+00
 -1       198 3.55540E+00-5.13400E+00-8.36406E+00-4.16531E-01-2.33188E+01-6.61492E+00
 -1       199 1.13951E+00 3.23495E-01 1.20375E-01-3.67441E+00-5.32589E+01-6.20139E+00
 -1       200 6.27316E-01-2.70739E+00-1.15511E+01-1.34456E+00-1.64957E+01-9.98872E+00
 -1       201 5.85114E+00 6.13122E+00-1.86037E+01-2.18522E+00-7.55280E+01 1.95159E-01
 -1       202 2.12323E+00-9.58252E+00 2.40121E+00-1.80224E+00-4.70300E+01-2.71348E+00
 -1       203-2.80620E+01-3.18266E+01 9.61713E+01-7.71983E-01-6.68057E+00-7.36613E+00
 -1       204 3.76900E-06-4.53900E-06-2.74347E+02-4.47812E-06-1.78166E+02 1.66650E+01
 -1       205-4.47716E+01-3.48567E+01 1.45148E+02 6.82594E+00-4.02201E+01-2.96420E+01
 -1       206 2.15459E-06 9.60216E-06-3.31674E+02 1.79592E-06-2.03741E+02-2.67106E+01
 -1       207-5.29740E+01-4.35515E+01 1.74917E+02-1.31206E+00-1.79602E+01-3.58146E+01
 -1       208 2.66960E-04 9.75210E-05-8.83116E+01-1.18177E-04-1.72814E+02-7.89898E+00
 -1       209 3.28605E+01 3.80451E-01-8.60260E+01-1.16767E+01-6.11818E+01-1.10191E+01
 -1       210-1.87073E+01-2.17955E+01 5.31908E+01 7.75629E+00-1.33582E+02-1.18534E+01
 -1       211 4.12605E-04 1.49586E-04-3.10816E+02-4.76684E-05-1.90070E+02-5.19399E+00
 -1       212-4.74834E+01-3.93495E+01 1.62135E+02 7.78863E-01-2.25844E+01-3.75816E+01
 -1       213 2.99963E-04 1.80667E-04-1.47554E+02 1.19331E-05-1.92939E+02-2.77610E+01
 -1       214 3.31765E+01 9.16748E+00-1.10701E+02 2.52541E+00-5.84956E+01-2.48631E+01
 -1       215-2.63360E+01-3.09822E+01 8.33220E+01-3.47109E-01-1.01794E+02-3.16727E+01
 -1       216-6.41058E+01-6.98822E+01 2.32896E+02-1.42456E+00 3.15123E+01 1.11685E+01
 -1       217-7.63217E+01-8.95894E+01 2.87167E+02 8.05894E-01 2.42665E+01 1.84562E+01
 -1       218-7.53072E+01-4.23891E+01 2.23458E+02 5.70482E+00 3.32047E+00-5.60787E-01
 -1       219-2.21694E+01-1.99068E+01 7.39505E+01-3.37461E+00 7.48756E+01 4.86642E+00
 -1       220-7.16474E+01-8.20835E+01 2.67137E+02 2.88912E+00 2.36686E+01 1.84930E+01
 -1       221-8.44217E+01-6.25857E+01 2.77842E+02-1.05632E+00 6.33125E+00-6.77972E+00
 -1       222-3.58107E+01-3.66212E+01 1.27992E+02 2.06392E-02 6.07402E+01 1.62415E+01
 -1       223 3.89110E+01 4.03907E+01-1.37574E+02 5.55436E-01 5.81104E+01 2.08990E+01
 -1       224 4.64037E+01 5.12969E+01-1.69094E+02-2.97910E-01 4.55002E+01 3.13640E+01
 -1       225-1.73846E+01-1.44997E+01 5.31794E+01 3.50338E-01 1.50166E+01 1.33574E+01
 -1       226 1.41895E+01 1.26164E+01-4.73442E+01 1.25987E+00 1.30505E+02 9.36528E+00
 -1       227 4.32775E+01 4.68567E+01-1.56403E+02-1.12761E+00 4.39822E+01 3.13705E+01
 -1       228-1.98331E+01-2.02387E+01 6.59144E+01 5.86927E-02 9.28281E-01 2.10934E+01
 -1       229 2.22050E+01 2.23151E+01-7.84369E+01 9.00596E-03 1.06860E+02 2.75687E+01
 -1       230 8.40014E+01 8.42522E+01-2.98005E+02 4.47305E-01-1.75596E+01-6.28988E+00
 -1       231 9.97077E+01 1.07249E+02-3.67228E+02-3.53515E-01-1.37593E+01-9.55854E+00
 -1       232 7.80375E+01 6.14444E+01-2.41603E+02-2.66139E+00 7.46014E+00 6.05743E+00
 -1       233 3.13928E+01 2.74266E+01-1.01678E+02 1.37056E+00-3.96910E+01-2.83240E+00
 -1       234 9.29317E+01 9.75298E+01-3.39479E+02-2.02844E+00-1.32985E+01-9.47832E+00
 -1       235 8.99337E+01 8.19139E+01-2.95635E+02 3.45981E-01 1.34876E+00 9.17075E+00
 -1       236 4.81264E+01 4.80494E+01-1.69810E+02 1.05937E-01-3.25304E+01-8.40724E+00
 -1       237-7.08192E+00-7.01533E+00 2.53760E+01-2.01756E-02-6.50734E+01-2.31817E+01
 -1       238-8.36411E+00-9.02444E+00 3.13843E+01 2.65890E-02-5.10888E+01-3.55558E+01
 -1       239 4.90260E+01 3.79413E+01-1.51423E+02-1.79367E+00-1.46923E+01-1.20429E+01
 -1       240-2.63856E+00-2.22873E+00 8.40343E+00-9.45669E-02-1.47369E+02-1.04682E+01
 -1       241-7.82074E+00-8.17643E+00 2.90453E+01 1.84130E-01-4.93863E+01-3.53702E+01
 -1       242 5.64076E+01 5.07017E+01-1.85349E+02 2.65237E-01-2.36326E+00-1.88767E+01
 -1       243-4.02777E+00-4.00922E+00 1.43167E+01-1.26156E-02-1.20645E+02-3.12581E+01
 -1       244-8.50516E+01-8.55932E+01 3.02569E+02-5.20107E-01-5.22630E+00-1.90160E+00
 -1       245-1.00892E+02-1.09240E+02 3.73133E+02 4.01293E-01-4.08336E+00-2.87822E+00
 -1       246-5.92334E+01-4.55170E+01 1.82509E+02 2.21924E+00-1.25210E+01-1.02934E+01
 -1       247-3.15807E+01-2.74226E+01 1.02385E+02-1.56738E+00-1.19151E+01-8.38801E-01
 -1       248-9.41423E+01-9.93554E+01 3.45138E+02 2.21081E+00-3.93744E+00-2.89839E+00
 -1       249-6.80154E+01-6.11666E+01 2.23674E+02-3.17669E-01-1.96114E+00-1.61004E+01
 -1       250-4.85635E+01-4.85273E+01 1.71895E+02-1.03567E-01-9.73286E+00-2.52748E+00
 -1       251-2.02509E+01-2.04035E+01 7.31244E+01-1.25716E-01 6.45520E+01 2.29161E+01
 -1       252-2.39560E+01-2.63815E+01 9.05706E+01 1.08261E-01 5.06964E+01 3.53355E+01
 -1       253-6.80001E+01-5.20811E+01 2.09331E+02 2.57258E+00 1.03905E+01 8.50741E+00
 -1       254-7.40915E+00-6.22147E+00 2.38996E+01-4.10698E-01 1.46416E+02 1.03566E+01
 -1       255-2.24344E+01-2.39193E+01 8.38869E+01 6.21031E-01 4.89855E+01 3.50358E+01
 -1       256-7.80302E+01-7.01796E+01 2.56688E+02-3.63446E-01 1.66477E+00 1.35488E+01
 -1       257-1.14580E+01-1.14468E+01 4.10786E+01-3.27630E-02 1.19924E+02 3.10691E+01
 -1       258 8.41726E+01 8.56545E+01-2.96485E+02 5.94488E-01 3.30156E+01 1.14139E+01
 -1       259 1.00476E+02 1.08017E+02-3.64377E+02-3.98709E-01 2.60805E+01 1.76393E+01
 -1       260 3.94425E+01 3.18876E+01-1.23264E+02-1.20161E+00 1.71147E+01 1.38339E+01
 -1       261 3.15217E+01 2.85879E+01-1.03997E+02 1.59144E+00 7.34281E+01 5.42384E+00
 -1       262 9.33173E+01 9.85064E+01-3.36256E+02-1.90911E+00 2.54004E+01 1.71862E+01
 -1       263 4.58187E+01 4.17564E+01-1.50122E+02 1.67500E-01 2.93750E+00 2.20439E+01
 -1       264 4.86003E+01 4.87528E+01-1.70626E+02 6.47480E-02 6.03975E+01 1.55489E+01
 -1       265 6.84635E+01 6.91547E+01-2.35425E+02 5.93512E-01-4.08066E+01-1.52556E+01
 -1       266 8.22171E+01 8.40974E+01-2.84048E+02-1.43988E-01-3.13525E+01-2.12836E+01
 -1       267 9.29256E+01 7.59841E+01-2.91370E+02-2.69866E+00-3.37081E+00-2.76188E+00
 -1       268 2.69727E+01 2.61299E+01-8.75763E+01 7.74279E-01-8.89387E+01-7.17199E+00
 -1       269 7.56373E+01 7.71407E+01-2.62787E+02-4.24455E-01-3.11435E+01-2.18873E+01
 -1       270 1.08161E+02 9.84482E+01-3.54662E+02 4.49770E-01-5.78027E-01-1.80871E+00
 -1       271 4.06955E+01 4.05053E+01-1.36595E+02 9.95942E-03-7.20731E+01-1.86855E+01
 -1       272-3.55540E+00 5.13400E+00 8.36406E+00 4.16531E-01-2.33188E+01-6.61492E+00
 -1       273 4.67923E+00 2.06885E-01 1.11906E+01-5.14665E-01-1.94592E+01-1.03750E+01
 -1       274 2.80620E+01 3.18266E+01-9.61713E+01 7.71983E-01-6.68057E+00-7.36613E+00
 -1       275-2.12323E+00 9.58252E+00-2.40121E+00 1.80224E+00-4.70300E+01-2.71348E+00
 -1       276-6.27316E-01 2.70739E+00 1.15511E+01 1.34456E+00-1.64957E+01-9.98872E+00
 -1       277 3.80596E+01 3.63210E+01-1.15483E+02-3.52029E-01 1.21145E+00-1.21672E+01
 -1       278 2.00810E+00 7.07351E+00 7.47230E-01-5.91930E-01-3.84952E+01-8.57976E+00
 -1       279 2.46845E-06-3.53418E-06-3.79712E+02 6.19799E-06-1.93173E+02-7.64860E+01
 -1       280-5.86870E+01-5.15234E+01 2.00893E+02-9.44751E+00-3.25585E+01 1.79177E+01
 -1       281 4.66848E-04 2.45860E-04-3.56589E+02 8.92985E-05-1.97585E+02-5.16917E+01
 -1       282-5.72229E+01-4.76343E+01 1.88369E+02-3.38595E+00-1.98670E+01-4.60132E+00
 -1       283 3.30664E-04 2.39197E-04-1.95827E+02 1.40242E-04-1.80304E+02-5.45505E+01
 -1       284 3.47373E+01 1.12701E+01-1.19065E+02 1.61613E+01-6.07971E+01-8.63107E+00
 -1       285-3.27200E+01-3.86631E+01 1.09655E+02-8.42722E+00-1.28269E+02 5.01468E+00
 -1       286-9.06370E+01-9.48105E+01 3.22343E+02 1.97168E+00 2.94972E+01-1.34014E+00
 -1       287-8.20499E+01-9.37905E+01 3.05832E+02-1.92683E+00 2.33201E+01 5.28853E+00
 -1       288-9.33412E+01-6.95575E+01 3.09280E+02-7.89581E+00 3.68289E+00 1.68900E+00
 -1       289-5.05018E+01-4.46667E+01 1.66253E+02 2.59878E+00 7.27485E+01 2.70323E+00
 -1       290 5.43446E+01 5.54137E+01-1.90410E+02-7.68758E-01 5.42940E+01-2.79117E+00
 -1       291 4.97568E+01 5.40470E+01-1.80398E+02 7.70962E-01 4.32281E+01 1.01256E+01
 -1       292-2.31071E+01-2.10227E+01 7.36035E+01-4.84889E-01 1.13985E+01-9.10206E+00
 -1       293 3.04446E+01 2.76038E+01-1.01601E+02-9.54016E-01 1.27083E+02 4.68388E+00
 -1       294 1.16346E+02 1.16527E+02-4.12457E+02-6.19097E-01-1.64147E+01 8.16785E-01
 -1       295 1.06956E+02 1.13111E+02-3.91201E+02 1.68318E+00-1.30702E+01-3.14538E+00
 -1       296 1.02520E+02 9.05314E+01-3.34393E+02 3.68352E+00 5.85401E+00-3.91259E+00
 -1       297 6.53260E+01 5.96275E+01-2.19387E+02-7.72637E-01-3.86708E+01-1.41547E+00
 -1       298-9.77978E+00-9.73167E+00 3.51220E+01 2.79242E-02-6.08730E+01 2.89236E+00
 -1       299-8.97469E+00-9.48489E+00 3.33727E+01-1.62661E-01-4.85553E+01-1.14909E+01
 -1       300 6.41884E+01 5.61796E+01-2.09579E+02 2.48255E+00-1.14917E+01 7.82481E+00
 -1       301-5.48372E+00-4.93439E+00 1.84587E+01 3.87005E-02-1.43522E+02-5.30974E+00
 -1       302-1.17896E+02-1.18287E+02 4.18774E+02 7.19860E-01-4.87579E+00 2.74197E-01
 -1       303-1.08229E+02-1.15096E+02 3.97395E+02-1.81016E+00-3.86980E+00-8.88390E-01
 -1       304-7.74456E+01-6.75353E+01 2.52604E+02-3.07156E+00-9.78343E+00 6.70029E+00
 -1       305-6.61277E+01-6.00237E+01 2.22003E+02 9.19620E-01-1.15913E+01-4.18908E-01
 -1       306-2.80790E+01-2.81893E+01 1.01209E+02 1.73998E-01 6.04117E+01-2.78504E+00
 -1       307-2.56878E+01-2.76446E+01 9.62623E+01-5.18275E-01 4.81700E+01 1.15280E+01
 -1       308-8.88507E+01-7.73490E+01 2.89726E+02-3.56061E+00 8.13011E+00-5.52384E+00
 -1       309-1.57159E+01-1.39737E+01 5.29208E+01 2.27161E-01 1.42629E+02 5.29467E+00
 -1       310 1.16990E+02 1.18061E+02-4.10353E+02-8.22808E-01 3.09994E+01-1.10142E+00
 -1       311 1.07746E+02 1.14182E+02-3.88574E+02 1.48442E+00 2.49599E+01 6.18619E+00
 -1       312 5.20918E+01 4.66334E+01-1.70605E+02 1.66310E+00 1.34507E+01-8.90998E+00
 -1       313 6.57848E+01 6.09782E+01-2.20763E+02-1.04476E+00 7.16561E+01 2.68896E+00
 -1       314 9.49863E+01 9.54857E+01-3.25842E+02-8.21457E-01-3.79349E+01 2.57068E+00
 -1       315 8.83109E+01 9.01731E+01-3.05758E+02 1.90960E-01-3.04307E+01-6.36506E+00
 -1       316 1.23011E+02 1.10770E+02-4.03274E+02 3.73511E+00-2.63686E+00 1.79408E+00
 -1       317 5.39261E+01 5.25412E+01-1.79166E+02-6.75139E-01-8.64381E+01-2.74732E+00
 -1       318-2.04666E+00 4.23153E+00 1.15764E+01-5.76504E-01-2.23733E+01-7.45867E-01
 -1       319 2.50891E+00 2.14934E+00 1.13724E+01-2.01235E+00-1.64771E+01-5.03535E+00
 -1       320 4.00847E+01 4.28047E+01-1.33107E+02-1.06847E+00-4.60002E+00 5.54888E+00
 -1       321-1.34084E+00 9.88564E+00 1.29167E+00-2.34302E+00-4.62320E+01-2.59827E+00
 -3
    1PSTEP                        48           1           1          
    1PGM                1.000000E+00                                  
    1PGK                5.411283E+10                                  
    1PHID                         -1                                  
    1PSUBC                         0                                  
    1PMODE                        12                                  
  100CL  112 37022.88488         321                     2   12MODAL      1
 -4  ERROR       1    1
 -5  STR(%)      1    1    0    0
 -1         1 2.05450E+01
 -1         2 2.05450E+01
 -1         3 2.05450E+01
 -1         4 2.05450E+01
 -1         5 2.05450E+01
 -1         6 2.05450E+01
 -1         7 2.05450E+01
 -1         8 2.05450E+01
 -1         9 2.05450E+01
 -1        10 2.05450E+01
 -1        11 2.05450E+01
 -1        12 2.05450E+01
 -1        13 2.05450E+01
 -1        14 2.05450E+01
 -1        15 2.05450E+01
 -1        16 2.05450E+01
 -1        17 2.05450E+01
 -1        18 2.05450E+01
 -1        19 2.05450E+01
 -1        20 2.05450E+01
 -1        21 1.96185E+01
 -1        22 1.83901E+01
 -1        23 1.96185E+01
 -1        24 1.96185E+01
 -1        25 2.00818E+01
 -1        26 1.90043E+01
 -1        27 1.94676E+01
 -1        28 1.96185E+01
 -1        29 1.90043E+01
 -1        30 2.00818E+01
 -1        31 1.96185E+01
 -1        32 2.00818E+01
 -1        33 2.09212E+01
 -1        34 1.84762E+01
 -1        35 2.09212E+01
 -1        36 2.09212E+01
 -1        37 2.02698E+01
 -1        38 1.96987E+01
 -1        39 1.84332E+01
 -1        40 2.09212E+01
 -1        41 1.96987E+01
 -1        42 2.02698E+01
 -1        43 2.09212E+01
 -1        44 2.02698E+01
 -1        45 2.09212E+01
 -1        46 1.84762E+01
 -1        47 2.09212E+01
 -1        48 2.09212E+01
 -1        49 2.09212E+01
 -1        50 1.96987E+01
 -1        51 1.84762E+01
 -1        52 2.09212E+01
 -1        53 1.96987E+01
 -1        54 2.09212E+01
 -1        55 2.09212E+01
 -1        56 2.09212E+01
 -1        57 1.80719E+01
 -1        58 1.65781E+01
 -1        59 1.80719E+01
 -1        60 1.80719E+01
 -1        61 1.94965E+01
 -1        62 1.73250E+01
 -1        63 1.75272E+01
 -1        64 1.80719E+01
 -1        65 1.73250E+01
 -1        66 1.94965E+01
 -1        67 1.80719E+01
 -1        68 1.94965E+01
 -1        69 2.00426E+01
 -1        70 1.79241E+01
 -1        71 2.00426E+01
 -1        72 2.00426E+01
 -1        73 1.90573E+01
 -1        74 1.89834E+01
 -1        75 1.72511E+01
 -1        76 2.00426E+01
 -1        77 1.89834E+01
 -1        78 1.90573E+01
 -1        79 2.00426E+01
 -1        80 1.90573E+01
 -1        81 2.00426E+01
 -1        82 1.79241E+01
 -1        83 2.00426E+01
 -1        84 2.00426E+01
 -1        85 2.00426E+01
 -1        86 1.89834E+01
 -1        87 1.79241E+01
 -1        88 2.00426E+01
 -1        89 1.89834E+01
 -1        90 2.00426E+01
 -1        91 2.00426E+01
 -1        92 2.00426E+01
 -1        93 2.12721E+01
 -1        94 1.89195E+01
 -1        95 2.12721E+01
 -1        96 2.12721E+01
 -1        97 2.06574E+01
 -1        98 2.00958E+01
 -1        99 1.84218E+01
 -1       100 2.12721E+01
 -1       101 2.00958E+01
 -1       102 2.06574E+01
 -1       103 2.12721E+01
 -1       104 2.06574E+01
 -1       105 2.12721E+01
 -1       106 1.95089E+01
 -1       107 2.12721E+01
 -1       108 2.12721E+01
 -1       109 2.12721E+01
 -1       110 2.03905E+01
 -1       111 1.92142E+01
 -1       112 2.12721E+01
 -1       113 2.03905E+01
 -1       114 2.12721E+01
 -1       115 2.12721E+01
 -1       116 2.12721E+01
 -1       117 1.95089E+01
 -1       118 1.95089E+01
 -1       119 1.95089E+01
 -1       120 1.95089E+01
 -1       121 2.03905E+01
 -1       122 1.95089E+01
 -1       123 1.95089E+01
 -1       124 1.95089E+01
 -1       125 1.95089E+01
 -1       126 2.03905E+01
 -1       127 1.95089E+01
 -1       128 2.03905E+01
 -1       129 1.95875E+01
 -1       130 2.05450E+01
 -1       131 2.05450E+01
 -1       132 1.96185E+01
 -1       133 2.00663E+01
 -1       134 2.05450E+01
 -1       135 2.05450E+01
 -1       136 2.00818E+01
 -1       137 2.00663E+01
 -1       138 2.05450E+01
 -1       139 2.00818E+01
 -1       140 1.96030E+01
 -1       141 1.96185E+01
 -1       142 1.96185E+01
 -1       143 1.96185E+01
 -1       144 1.96185E+01
 -1       145 2.00818E+01
 -1       146 1.96185E+01
 -1       147 1.96185E+01
 -1       148 2.09212E+01
 -1       149 2.09212E+01
 -1       150 2.09212E+01
 -1       151 2.09212E+01
 -1       152 2.02698E+01
 -1       153 2.09212E+01
 -1       154 2.02698E+01
 -1       155 2.09212E+01
 -1       156 2.09212E+01
 -1       157 2.09212E+01
 -1       158 2.09212E+01
 -1       159 2.09212E+01
 -1       160 2.09212E+01
 -1       161 2.09212E+01
 -1       162 1.80719E+01
 -1       163 1.80719E+01
 -1       164 1.80719E+01
 -1       165 1.80719E+01
 -1       166 1.94965E+01
 -1       167 1.80719E+01
 -1       168 1.94965E+01
 -1       169 2.00426E+01
 -1       170 2.00426E+01
 -1       171 2.00426E+01
 -1       172 2.00426E+01
 -1       173 1.90573E+01
 -1       174 2.00426E+01
 -1       175 1.90573E+01
 -1       176 2.00426E+01
 -1       177 2.00426E+01
 -1       178 2.00426E+01
 -1       179 2.00426E+01
 -1       180 2.00426E+01
 -1       181 2.00426E+01
 -1       182 2.00426E+01
 -1       183 2.12721E+01
 -1       184 2.12721E+01
 -1       185 2.12721E+01
 -1       186 2.12721E+01
 -1       187 2.06574E+01
 -1       188 2.12721E+01
 -1       189 2.06574E+01
 -1       190 2.12721E+01
 -1       191 2.12721E+01
 -1       192 2.12721E+01
 -1       193 2.12721E+01
 -1       194 2.12721E+01
 -1       195 2.12721E+01
 -1       196 2.12721E+01
 -1       197 1.95089E+01
 -1       198 1.92848E+01
 -1       199 1.95089E+01
 -1       200 1.93969E+01
 -1       201 2.03905E+01
 -1       202 1.93969E+01
 -1       203 2.02784E+01
 -1       204 1.95875E+01
 -1       205 1.96185E+01
 -1       206 2.05450E+01
 -1       207 2.05450E+01
 -1       208 2.00663E+01
 -1       209 1.96030E+01
 -1       210 2.00818E+01
 -1       211 2.00663E+01
 -1       212 2.00818E+01
 -1       213 2.05450E+01
 -1       214 2.05450E+01
 -1       215 2.05450E+01
 -1       216 1.96185E+01
 -1       217 1.96185E+01
 -1       218 1.96185E+01
 -1       219 1.96185E+01
 -1       220 1.96185E+01
 -1       221 2.00818E+01
 -1       222 1.96185E+01
 -1       223 2.09212E+01
 -1       224 2.09212E+01
 -1       225 2.02698E+01
 -1       226 2.09212E+01
 -1       227 2.09212E+01
 -1       228 2.02698E+01
 -1       229 2.09212E+01
 -1       230 2.09212E+01
 -1       231 2.09212E+01
 -1       232 2.09212E+01
 -1       233 2.09212E+01
 -1       234 2.09212E+01
 -1       235 2.09212E+01
 -1       236 2.09212E+01
 -1       237 1.80719E+01
 -1       238 1.80719E+01
 -1       239 1.94965E+01
 -1       240 1.80719E+01
 -1       241 1.80719E+01
 -1       242 1.94965E+01
 -1       243 1.80719E+01
 -1       244 2.00426E+01
 -1       245 2.00426E+01
 -1       246 1.90573E+01
 -1       247 2.00426E+01
 -1       248 2.00426E+01
 -1       249 1.90573E+01
 -1       250 2.00426E+01
 -1       251 2.00426E+01
 -1       252 2.00426E+01
 -1       253 2.00426E+01
 -1       254 2.00426E+01
 -1       255 2.00426E+01
 -1       256 2.00426E+01
 -1       257 2.00426E+01
 -1       258 2.12721E+01
 -1       259 2.12721E+01
 -1       260 2.06574E+01
 -1       261 2.12721E+01
 -1       262 2.12721E+01
 -1       263 2.06574E+01
 -1       264 2.12721E+01
 -1       265 2.12721E+01
 -1       266 2.12721E+01
 -1       267 2.12721E+01
 -1       268 2.12721E+01
 -1       269 2.12721E+01
 -1       270 2.12721E+01
 -1       271 2.12721E+01
 -1       272 1.92848E+01
 -1       273 1.95089E+01
 -1       274 2.02784E+01
 -1       275 1.93969E+01
 -1       276 1.93969E+01
 -1       277 2.03905E+01
 -1       278 1.95089E+01
 -1       279 2.05450E+01
 -1       280 2.05450E+01
 -1       281 2.05450E+01
 -1       282 2.05450E+01
 -1       283 2.05450E+01
 -1       284 2.05450E+01
 -1       285 2.05450E+01
 -1       286 1.83901E+01
 -1       287 1.90043E+01
 -1       288 1.94676E+01
 -1       289 1.90043E+01
 -1       290 1.84762E+01
 -1       291 1.96987E+01
 -1       292 1.84332E+01
 -1       293 1.96987E+01
 -1       294 1.84762E+01
 -1       295 1.96987E+01
 -1       296 1.84762E+01
 -1       297 1.96987E+01
 -1       298 1.65781E+01
 -1       299 1.73250E+01
 -1       300 1.75272E+01
 -1       301 1.73250E+01
 -1       302 1.79241E+01
 -1       303 1.89834E+01
 -1       304 1.72511E+01
 -1       305 1.89834E+01
 -1       306 1.79241E+01
 -1       307 1.89834E+01
 -1       308 1.79241E+01
 -1       309 1.89834E+01
 -1       310 1.89195E+01
 -1       311 2.00958E+01
 -1       312 1.84218E+01
 -1       313 2.00958E+01
 -1       314 1.95089E+01
 -1       315 2.03905E+01
 -1       316 1.92142E+01
 -1       317 2.03905E+01
 -1       318 1.95089E+01
 -1       319 1.95089E+01
 -1       320 1.95089E+01
 -1       321 1.95089E+01
 -3
    1PSTEP                        49           1           1          
    1PGM                1.000000E+00                                  
    1PGK                5.411283E+10                                  
    1PHID                         -1                                  
    1PSUBC                         0                                  
    1PMODE                        13                                  
  100CL  113 37022.88488         321                     2   13MODAL      1
 -4  DISP        4    1
 -5  D1          1    2    1    0
 -5  D2          1    2    2    0
 -5  D3          1    2    3    0
 -5  ALL         1    2    0    0    1ALL
 -1         1 0.00000E+00 0.00000E+00 0.00000E+00
 -1         2 0.00000E+00 0.00000E+00 0.00000E+00
 -1         3 4.11309E+00-7.05048E-01-1.10698E+00
 -1         4 4.26762E+00-9.42461E-01-8.60240E-01
 -1         5 0.00000E+00 0.00000E+00 0.00000E+00
 -1         6 0.00000E+00 0.00000E+00 0.00000E+00
 -1         7 4.26800E+00-6.87555E-01-1.70974E-14
 -1         8 4.37659E+00-6.62600E-01 1.78330E-01
 -1         9 0.00000E+00 0.00000E+00 0.00000E+00
 -1        10 2.04700E+00-3.09819E-01-1.10593E+00
 -1        11 4.17246E+00-8.27143E-01-1.06163E+00
 -1        12 1.95776E+00-1.52295E-01-9.00927E-01
 -1        13 0.00000E+00 0.00000E+00 0.00000E+00
 -1        14 0.00000E+00 0.00000E+00 0.00000E+00
 -1        15 4.20626E+00-6.93536E-01-3.70634E-01
 -1        16 4.33843E+00-7.98907E-01-1.19475E-01
 -1        17 0.00000E+00 0.00000E+00 0.00000E+00
 -1        18 1.96974E+00-3.17316E-01-7.54952E-15
 -1        19 4.30513E+00-6.77609E-01 5.97074E-02
 -1        20 1.92320E+00-3.29762E-01 1.78160E-01
 -1        21 4.01378E+00-7.03359E-01 1.67137E+00
 -1        22 4.26657E+00-1.06159E+00 1.37429E+00
 -1        23 4.19688E+00-6.76097E-01-3.59712E-14
 -1        24 4.36610E+00-6.46600E-01-2.69249E-01
 -1        25 5.06850E+00-8.70796E-01 1.86499E-01
 -1        26 4.07394E+00-8.91898E-01 1.56482E+00
 -1        27 5.35113E+00-1.27295E+00 1.68388E-01
 -1        28 4.17154E+00-6.80948E-01 7.52907E-01
 -1        29 4.37881E+00-8.31972E-01 4.46601E-01
 -1        30 5.21757E+00-8.40525E-01-2.75335E-14
 -1        31 4.22699E+00-6.72015E-01-1.21290E-01
 -1        32 5.40547E+00-8.16511E-01-3.00441E-02
 -1        33-1.81550E+00 3.27456E-01 2.33050E+00
 -1        34-1.96961E+00 5.43840E-01 1.90607E+00
 -1        35-1.92708E+00 3.10443E-01-4.61853E-14
 -1        36-2.03269E+00 2.92469E-01-3.75432E-01
 -1        37 1.34119E+00-2.29797E-01 2.48171E+00
 -1        38-1.85612E+00 4.41105E-01 2.18224E+00
 -1        39 1.40947E+00-3.24654E-01 2.02446E+00
 -1        40-1.90752E+00 3.13895E-01 1.03619E+00
 -1        41-2.03587E+00 4.07425E-01 5.99382E-01
 -1        42 1.38241E+00-2.22700E-01-3.81917E-14
 -1        43-1.94851E+00 3.07292E-01-1.66925E-01
 -1        44 1.42647E+00-2.16059E-01-3.99792E-01
 -1        45-4.32460E+00 7.71731E-01-6.25781E-01
 -1        46-4.65340E+00 1.23638E+00-5.09901E-01
 -1        47-4.56484E+00 7.35373E-01-3.90799E-14
 -1        48-4.79053E+00 6.96672E-01 1.00810E-01
 -1        49-4.04518E+00 7.15682E-01 1.06195E+00
 -1        50-4.41477E+00 1.01522E+00-5.87155E-01
 -1        51-4.34690E+00 1.13909E+00 8.65534E-01
 -1        52-4.51872E+00 7.43026E-01-2.73393E-01
 -1        53-4.79300E+00 9.46145E-01-1.53959E-01
 -1        54-4.23427E+00 6.82121E-01-4.35207E-14
 -1        55-4.61234E+00 7.27944E-01 4.40423E-02
 -1        56-4.44260E+00 6.51659E-01-1.71074E-01
 -1        57 4.22495E-01-7.42916E-02-2.47923E+00
 -1        58 4.50022E-01-1.13395E-01-2.02410E+00
 -1        59 4.42541E-01-7.12912E-02-3.37508E-14
 -1        60 4.61165E-01-6.80620E-02 3.99392E-01
 -1        61-2.56430E+00 4.53150E-01-1.97664E+00
 -1        62 4.29996E-01-9.47663E-02-2.32478E+00
 -1        63-2.75333E+00 7.18746E-01-1.60705E+00
 -1        64 4.38787E-01-7.19084E-02-1.09246E+00
 -1        65 4.61577E-01-8.89671E-02-6.23267E-01
 -1        66-2.68234E+00 4.32112E-01-3.01981E-14
 -1        67 4.46372E-01-7.06866E-02 1.75990E-01
 -1        68-2.81293E+00 4.13097E-01 3.18427E-01
 -1        69 4.54600E+00-8.08046E-01-2.42539E-01
 -1        70 4.87884E+00-1.27875E+00-1.99052E-01
 -1        71 4.78863E+00-7.71426E-01-2.33147E-14
 -1        72 5.01595E+00-7.32340E-01 3.90720E-02
 -1        73 3.23211E+00-5.68748E-01-1.72391E+00
 -1        74 4.63629E+00-1.05476E+00-2.26822E-01
 -1        75 3.46032E+00-8.89474E-01-1.40245E+00
 -1        76 4.74321E+00-7.79031E-01-1.09293E-01
 -1        77 5.02011E+00-9.84099E-01-6.45455E-02
 -1        78 3.37361E+00-5.43472E-01-3.68594E-14
 -1        79 4.83584E+00-7.64109E-01 1.76066E-02
 -1        80 3.53051E+00-5.20677E-01 2.77713E-01
 -1        81 1.28970E+00-2.25487E-01 2.32427E+00
 -1        82 1.36860E+00-3.37657E-01 1.89420E+00
 -1        83 1.34693E+00-2.16984E-01 4.55191E-15
 -1        84 1.39971E+00-2.07764E-01-3.74429E-01
 -1        85 3.78019E+00-6.63978E-01 1.34265E+00
 -1        86 1.31056E+00-2.84301E-01 2.18166E+00
 -1        87 4.04214E+00-1.03215E+00 1.08998E+00
 -1        88 1.33698E+00-2.18665E-01 1.01572E+00
 -1        89 1.40189E+00-2.67181E-01 5.71960E-01
 -1        90 3.94195E+00-6.35030E-01-8.79852E-15
 -1        91 1.35736E+00-2.15381E-01-1.63628E-01
 -1        92 4.12165E+00-6.08971E-01-2.16295E-01
 -1        93-3.76722E+00 6.83337E-01 8.23089E-01
 -1        94-4.09888E+00 1.14991E+00 6.61593E-01
 -1        95-4.01098E+00 6.46149E-01 1.33227E-14
 -1        96-4.24182E+00 6.06882E-01-1.32596E-01
 -1        97-1.71504E+00 3.09367E-01 2.06191E+00
 -1        98-3.85877E+00 9.28053E-01 7.77065E-01
 -1        99-1.86818E+00 5.23971E-01 1.67077E+00
 -1       100-3.96318E+00 6.54120E-01 3.39357E-01
 -1       101-4.24169E+00 8.58445E-01 1.72573E-01
 -1       102-1.81299E+00 2.92064E-01 7.10543E-15
 -1       103-4.06046E+00 6.38450E-01-5.46688E-02
 -1       104-1.92040E+00 2.76285E-01-3.32164E-01
 -1       105-1.66068E+00 3.32446E-01-2.72344E+00
 -1       106-1.93302E+00 7.10624E-01-2.25203E+00
 -1       107-1.86319E+00 3.00152E-01 2.39808E-14
 -1       108-2.06366E+00 2.67527E-01 4.38733E-01
 -1       109-3.82530E+00 6.95177E-01-1.02192E+00
 -1       110-1.74178E+00 5.30499E-01-2.53163E+00
 -1       111-4.18565E+00 1.20058E+00-8.48230E-01
 -1       112-1.81643E+00 3.07840E-01-1.27674E+00
 -1       113-2.05212E+00 4.78181E-01-7.96535E-01
 -1       114-4.06037E+00 6.54107E-01 1.37668E-14
 -1       115-1.91092E+00 2.92618E-01 2.05677E-01
 -1       116-4.31532E+00 6.16237E-01 1.64626E-01
 -1       117 6.03614E+00-9.60181E-01-3.87823E+00
 -1       118 6.00824E+00-9.63321E-01-3.21371E+00
 -1       119 6.00077E+00-9.66696E-01 2.22045E-14
 -1       120 5.96033E+00-9.72393E-01 6.24765E-01
 -1       121 2.00243E+00-2.92831E-01-3.61750E+00
 -1       122 6.01975E+00-9.58093E-01-3.57208E+00
 -1       123 1.88043E+00-1.27280E-01-2.99420E+00
 -1       124 6.02704E+00-9.63018E-01-1.90258E+00
 -1       125 5.98985E+00-9.69086E-01-1.24115E+00
 -1       126 1.91266E+00-3.08120E-01 7.99361E-15
 -1       127 5.97794E+00-9.70927E-01 3.06496E-01
 -1       128 1.81775E+00-3.22582E-01 5.82763E-01
 -1       129 0.00000E+00 0.00000E+00 0.00000E+00
 -1       130 0.00000E+00 0.00000E+00 0.00000E+00
 -1       131 4.11309E+00-7.05048E-01 1.10698E+00
 -1       132 4.18328E+00-4.18939E-01 1.19062E+00
 -1       133 0.00000E+00 0.00000E+00 0.00000E+00
 -1       134 0.00000E+00 0.00000E+00 0.00000E+00
 -1       135 4.20626E+00-6.93536E-01 3.70634E-01
 -1       136 4.29601E+00-5.38667E-01 4.77003E-01
 -1       137 0.00000E+00 0.00000E+00 0.00000E+00
 -1       138 2.04700E+00-3.09819E-01 1.10593E+00
 -1       139 4.13054E+00-5.63826E-01 1.15772E+00
 -1       140 2.01171E+00-4.87167E-01 1.24694E+00
 -1       141 4.01378E+00-7.03359E-01-1.67137E+00
 -1       142 4.14278E+00-2.93118E-01-1.90210E+00
 -1       143 4.17154E+00-6.80948E-01-7.52907E-01
 -1       144 4.31712E+00-4.71253E-01-9.88000E-01
 -1       145 5.06850E+00-8.70796E-01-1.86499E-01
 -1       146 4.01583E+00-5.08975E-01-1.79592E+00
 -1       147 5.21521E+00-4.29239E-01-2.33059E-01
 -1       148-1.81550E+00 3.27456E-01-2.33050E+00
 -1       149-1.89467E+00 7.86778E-02-2.63812E+00
 -1       150-1.90752E+00 3.13895E-01-1.03619E+00
 -1       151-1.99844E+00 1.84823E-01-1.35315E+00
 -1       152 1.34119E+00-2.29797E-01-2.48171E+00
 -1       153-1.82026E+00 2.08804E-01-2.49678E+00
 -1       154 1.37719E+00-1.24264E-01-2.80197E+00
 -1       155-4.32460E+00 7.71731E-01 6.25781E-01
 -1       156-4.49240E+00 2.36964E-01 7.05734E-01
 -1       157-4.51872E+00 7.43026E-01 2.73393E-01
 -1       158-4.71259E+00 4.63734E-01 3.56379E-01
 -1       159-4.04518E+00 7.15682E-01-1.06195E+00
 -1       160-4.33706E+00 5.16090E-01 6.69368E-01
 -1       161-4.20174E+00 2.38053E-01-1.19795E+00
 -1       162 4.22495E-01-7.42916E-02 2.47923E+00
 -1       163 4.36494E-01-2.94190E-02 2.80147E+00
 -1       164 4.38787E-01-7.19084E-02 1.09246E+00
 -1       165 4.54827E-01-4.85239E-02 1.42546E+00
 -1       166-2.56430E+00 4.53150E-01 1.97664E+00
 -1       167 4.23481E-01-5.28620E-02 2.65482E+00
 -1       168-2.66230E+00 1.53686E-01 2.22425E+00
 -1       169 4.54600E+00-8.08046E-01 2.42539E-01
 -1       170 4.71584E+00-2.66910E-01 2.75500E-01
 -1       171 4.74321E+00-7.79031E-01 1.09293E-01
 -1       172 4.93873E+00-4.97028E-01 1.43012E-01
 -1       173 3.23211E+00-5.68748E-01 1.72391E+00
 -1       174 4.55782E+00-5.49565E-01 2.60258E-01
 -1       175 3.35050E+00-2.07717E-01 1.94108E+00
 -1       176 1.28970E+00-2.25487E-01-2.32427E+00
 -1       177 1.32984E+00-9.70504E-02-2.62169E+00
 -1       178 1.33698E+00-2.18665E-01-1.01572E+00
 -1       179 1.38255E+00-1.52082E-01-1.32408E+00
 -1       180 3.78019E+00-6.63978E-01-1.34265E+00
 -1       181 1.29202E+00-1.64258E-01-2.48711E+00
 -1       182 3.91612E+00-2.49889E-01-1.50860E+00
 -1       183-3.76722E+00 6.83337E-01-8.23089E-01
 -1       184-3.93694E+00 1.44619E-01-9.15685E-01
 -1       185-3.96318E+00 6.54120E-01-3.39357E-01
 -1       186-4.16073E+00 3.72196E-01-4.38802E-01
 -1       187-1.71504E+00 3.09367E-01-2.06191E+00
 -1       188-3.78044E+00 4.25538E-01-8.75555E-01
 -1       189-1.79441E+00 6.60539E-02-2.31244E+00
 -1       190-1.66068E+00 3.32446E-01 2.72344E+00
 -1       191-1.80096E+00-1.09097E-01 3.11695E+00
 -1       192-1.81643E+00 3.07840E-01 1.27674E+00
 -1       193-1.98600E+00 7.24746E-02 1.67638E+00
 -1       194-3.82530E+00 6.95177E-01 1.02192E+00
 -1       195-1.67642E+00 1.20023E-01 2.93000E+00
 -1       196-4.01156E+00 1.19956E-01 1.17400E+00
 -1       197 6.03614E+00-9.60181E-01 3.87823E+00
 -1       198 6.00976E+00-9.72721E-01 4.44798E+00
 -1       199 6.02704E+00-9.63018E-01 1.90258E+00
 -1       200 5.99211E+00-9.70457E-01 2.48884E+00
 -1       201 2.00243E+00-2.92831E-01 3.61750E+00
 -1       202 6.01997E+00-9.72143E-01 4.17297E+00
 -1       203 1.93853E+00-4.87935E-01 4.14415E+00
 -1       204 0.00000E+00 0.00000E+00 0.00000E+00
 -1       205 4.18328E+00-4.18939E-01-1.19062E+00
 -1       206 0.00000E+00 0.00000E+00 0.00000E+00
 -1       207 4.37659E+00-6.62600E-01-1.78330E-01
 -1       208 0.00000E+00 0.00000E+00 0.00000E+00
 -1       209 2.01171E+00-4.87167E-01-1.24694E+00
 -1       210 4.13054E+00-5.63826E-01-1.15772E+00
 -1       211 0.00000E+00 0.00000E+00 0.00000E+00
 -1       212 4.29601E+00-5.38667E-01-4.77003E-01
 -1       213 0.00000E+00 0.00000E+00 0.00000E+00
 -1       214 1.92320E+00-3.29762E-01-1.78160E-01
 -1       215 4.30513E+00-6.77609E-01-5.97074E-02
 -1       216 4.14278E+00-2.93118E-01 1.90210E+00
 -1       217 4.36610E+00-6.46600E-01 2.69249E-01
 -1       218 5.21521E+00-4.29239E-01 2.33059E-01
 -1       219 4.01583E+00-5.08975E-01 1.79592E+00
 -1       220 4.31712E+00-4.71253E-01 9.88000E-01
 -1       221 5.40547E+00-8.16511E-01 3.00441E-02
 -1       222 4.22699E+00-6.72015E-01 1.21290E-01
 -1       223-1.89467E+00 7.86778E-02 2.63812E+00
 -1       224-2.03269E+00 2.92469E-01 3.75432E-01
 -1       225 1.37719E+00-1.24264E-01 2.80197E+00
 -1       226-1.82026E+00 2.08804E-01 2.49678E+00
 -1       227-1.99844E+00 1.84823E-01 1.35315E+00
 -1       228 1.42647E+00-2.16059E-01 3.99792E-01
 -1       229-1.94851E+00 3.07292E-01 1.66925E-01
 -1       230-4.49240E+00 2.36964E-01-7.05734E-01
 -1       231-4.79053E+00 6.96672E-01-1.00810E-01
 -1       232-4.20174E+00 2.38053E-01 1.19795E+00
 -1       233-4.33706E+00 5.16090E-01-6.69368E-01
 -1       234-4.71259E+00 4.63734E-01-3.56379E-01
 -1       235-4.44260E+00 6.51659E-01 1.71074E-01
 -1       236-4.61234E+00 7.27944E-01-4.40423E-02
 -1       237 4.36494E-01-2.94190E-02-2.80147E+00
 -1       238 4.61165E-01-6.80620E-02-3.99392E-01
 -1       239-2.66230E+00 1.53686E-01-2.22425E+00
 -1       240 4.23481E-01-5.28620E-02-2.65482E+00
 -1       241 4.54827E-01-4.85239E-02-1.42546E+00
 -1       242-2.81293E+00 4.13097E-01-3.18427E-01
 -1       243 4.46372E-01-7.06866E-02-1.75990E-01
 -1       244 4.71584E+00-2.66910E-01-2.75500E-01
 -1       245 5.01595E+00-7.32340E-01-3.90720E-02
 -1       246 3.35050E+00-2.07717E-01-1.94108E+00
 -1       247 4.55782E+00-5.49565E-01-2.60258E-01
 -1       248 4.93873E+00-4.97028E-01-1.43012E-01
 -1       249 3.53051E+00-5.20677E-01-2.77713E-01
 -1       250 4.83584E+00-7.64109E-01-1.76066E-02
 -1       251 1.32984E+00-9.70504E-02 2.62169E+00
 -1       252 1.39971E+00-2.07764E-01 3.74429E-01
 -1       253 3.91612E+00-2.49889E-01 1.50860E+00
 -1       254 1.29202E+00-1.64258E-01 2.48711E+00
 -1       255 1.38255E+00-1.52082E-01 1.32408E+00
 -1       256 4.12165E+00-6.08971E-01 2.16295E-01
 -1       257 1.35736E+00-2.15381E-01 1.63628E-01
 -1       258-3.93694E+00 1.44619E-01 9.15685E-01
 -1       259-4.24182E+00 6.06882E-01 1.32596E-01
 -1       260-1.79441E+00 6.60539E-02 2.31244E+00
 -1       261-3.78044E+00 4.25538E-01 8.75555E-01
 -1       262-4.16073E+00 3.72196E-01 4.38802E-01
 -1       263-1.92040E+00 2.76285E-01 3.32164E-01
 -1       264-4.06046E+00 6.38450E-01 5.46688E-02
 -1       265-1.80096E+00-1.09097E-01-3.11695E+00
 -1       266-2.06366E+00 2.67527E-01-4.38733E-01
 -1       267-4.01156E+00 1.19956E-01-1.17400E+00
 -1       268-1.67642E+00 1.20023E-01-2.93000E+00
 -1       269-1.98600E+00 7.24746E-02-1.67638E+00
 -1       270-4.31532E+00 6.16237E-01-1.64626E-01
 -1       271-1.91092E+00 2.92618E-01-2.05677E-01
 -1       272 6.00976E+00-9.72721E-01-4.44798E+00
 -1       273 5.96033E+00-9.72393E-01-6.24765E-01
 -1       274 1.93853E+00-4.87935E-01-4.14415E+00
 -1       275 6.01997E+00-9.72143E-01-4.17297E+00
 -1       276 5.99211E+00-9.70457E-01-2.48884E+00
 -1       277 1.81775E+00-3.22582E-01-5.82763E-01
 -1       278 5.97794E+00-9.70927E-01-3.06496E-01
 -1       279 0.00000E+00 0.00000E+00 0.00000E+00
 -1       280 4.26762E+00-9.42461E-01 8.60240E-01
 -1       281 0.00000E+00 0.00000E+00 0.00000E+00
 -1       282 4.33843E+00-7.98907E-01 1.19475E-01
 -1       283 0.00000E+00 0.00000E+00 0.00000E+00
 -1       284 1.95776E+00-1.52295E-01 9.00927E-01
 -1       285 4.17246E+00-8.27143E-01 1.06163E+00
 -1       286 4.26657E+00-1.06159E+00-1.37429E+00
 -1       287 4.37881E+00-8.31972E-01-4.46601E-01
 -1       288 5.35113E+00-1.27295E+00-1.68388E-01
 -1       289 4.07394E+00-8.91898E-01-1.56482E+00
 -1       290-1.96961E+00 5.43840E-01-1.90607E+00
 -1       291-2.03587E+00 4.07425E-01-5.99382E-01
 -1       292 1.40947E+00-3.24654E-01-2.02446E+00
 -1       293-1.85612E+00 4.41105E-01-2.18224E+00
 -1       294-4.65340E+00 1.23638E+00 5.09901E-01
 -1       295-4.79300E+00 9.46145E-01 1.53959E-01
 -1       296-4.34690E+00 1.13909E+00-8.65534E-01
 -1       297-4.41477E+00 1.01522E+00 5.87155E-01
 -1       298 4.50022E-01-1.13395E-01 2.02410E+00
 -1       299 4.61577E-01-8.89671E-02 6.23267E-01
 -1       300-2.75333E+00 7.18746E-01 1.60705E+00
 -1       301 4.29996E-01-9.47663E-02 2.32478E+00
 -1       302 4.87884E+00-1.27875E+00 1.99052E-01
 -1       303 5.02011E+00-9.84099E-01 6.45455E-02
 -1       304 3.46032E+00-8.89474E-01 1.40245E+00
 -1       305 4.63629E+00-1.05476E+00 2.26822E-01
 -1       306 1.36860E+00-3.37657E-01-1.89420E+00
 -1       307 1.40189E+00-2.67181E-01-5.71960E-01
 -1       308 4.04214E+00-1.03215E+00-1.08998E+00
 -1       309 1.31056E+00-2.84301E-01-2.18166E+00
 -1       310-4.09888E+00 1.14991E+00-6.61593E-01
 -1       311-4.24169E+00 8.58445E-01-1.72573E-01
 -1       312-1.86818E+00 5.23971E-01-1.67077E+00
 -1       313-3.85877E+00 9.28053E-01-7.77065E-01
 -1       314-1.93302E+00 7.10624E-01 2.25203E+00
 -1       315-2.05212E+00 4.78181E-01 7.96535E-01
 -1       316-4.18565E+00 1.20058E+00 8.48230E-01
 -1       317-1.74178E+00 5.30499E-01 2.53163E+00
 -1       318 6.00824E+00-9.63321E-01 3.21371E+00
 -1       319 5.98985E+00-9.69086E-01 1.24115E+00
 -1       320 1.88043E+00-1.27280E-01 2.99420E+00
 -1       321 6.01975E+00-9.58093E-01 3.57208E+00
 -3
    1PSTEP                        50           1           1          
    1PGM                1.000000E+00                                  
    1PGK                5.411283E+10                                  
    1PHID                         -1                                  
    1PSUBC                         0                                  
    1PMODE                        13                                  
  100CL  113 37022.88488         321                     2   13MODAL      1
 -4  STRESS      6    1
 -5  SXX         1    4    1    1
 -5  SYY         1    4    2    2
 -5  SZZ         1    4    3    3
 -5  SXY         1    4    1    2
 -5  SYZ         1    4    2    3
 -5  SZX         1    4    3    1
 -1         1-3.32381E+13-3.32381E+13-7.75557E+13 7.23389E+05 2.69204E+12 2.87807E+13
 -1         2-4.01836E+13-4.01836E+13-9.37617E+13-2.90110E+05-4.31478E+12 3.29120E+13
 -1         3 2.46217E+12 9.40063E+11 3.77532E+13 2.11949E+11-5.78544E+12 2.90126E+12
 -1         4 2.30726E+12 7.05608E+11 3.13849E+13-1.10265E+12-4.78832E+12 6.49709E+12
 -1         5 6.47339E+12 6.47339E+12 1.51046E+13 1.80086E+06-5.30196E+12 2.67840E+13
 -1         6-1.97035E-01-1.79339E-01-3.85971E-01 2.19571E-02-4.69827E+12 2.91646E+13
 -1         7-6.28296E-01-2.61414E-01-7.26776E-01-1.11237E-02-4.74409E+12 2.94490E+13
 -1         8-1.51440E+11-3.96644E+11-6.08186E+12-1.31567E+12-4.67380E+11 3.59132E+13
 -1         9-3.76565E+13-3.76564E+13-8.78652E+13 7.70028E+06-8.39029E+11 3.07036E+13
 -1        10-6.80078E+12-2.92240E+12-2.61641E+13-4.07951E+11-4.01635E+12 9.44930E+12
 -1        11 2.76665E+12 1.45273E+12 3.53141E+13-1.25816E+11-6.07087E+12 3.64825E+12
 -1        12-6.33366E+12-1.08688E+12-2.02916E+13 1.88624E+12-1.78002E+12 9.88321E+12
 -1        13-1.06992E+13-1.06992E+13-2.49650E+13 1.90902E+07-1.27599E+12 2.79161E+13
 -1        14-1.78766E+13-1.78766E+13-4.17123E+13-1.92766E+06-4.48448E+12 3.11670E+13
 -1        15-1.85435E+12-1.10382E+12 1.66102E+13 5.60714E+10-5.11635E+12 1.64436E+13
 -1        16-1.98360E+12-1.48475E+12 1.01296E+13-1.25294E+12-1.91478E+12 2.15786E+13
 -1        17 2.87984E+12 2.87984E+12 6.71965E+12 1.19659E+07-5.02085E+12 2.78374E+13
 -1        18-2.04590E-01 2.72217E-02-4.09790E-01-6.56738E-02-3.62721E+12 2.25159E+13
 -1        19 1.77820E+11 2.98727E+11-2.67582E+12-3.48063E+11-2.64898E+12 3.17598E+13
 -1        20 4.70784E+11 1.09557E+12 4.21492E+12 2.53236E+12-1.52224E+12 2.49315E+13
 -1        21 2.18445E+11 2.36169E+12 6.10790E+13-1.30183E+11 2.98138E+12-3.91998E+12
 -1        22 6.94488E+11 1.62760E+12 4.96049E+13 2.30121E+11 1.80414E+12-5.09045E+12
 -1        23-4.48303E-01-8.03558E-01-5.18707E-01 1.88812E-01 2.46208E+12-1.52834E+13
 -1        24-3.80458E+11-3.51905E+10-9.83954E+12 8.08111E+11 6.31489E+11-1.85070E+13
 -1        25 5.74111E+12 2.21375E+12 6.07333E+13 1.70636E+11-1.09519E+12-1.02274E+12
 -1        26 4.79894E+11 2.16573E+12 5.68924E+13-4.66704E+11 2.98733E+12-3.82338E+12
 -1        27 5.96603E+12 6.48482E+11 4.89106E+13-9.21547E+11-9.05887E+10-5.36383E+11
 -1        28 8.15618E+11 9.46533E+11 2.74070E+13-3.33403E+09 2.62363E+12-9.81187E+12
 -1        29 6.45977E+11 2.80494E+11 1.58076E+13 5.45129E+11 7.86114E+11-1.20953E+13
 -1        30-3.35938E-01-5.10857E-01-6.51062E-01 1.72943E-01-9.13689E+11 5.67173E+12
 -1        31-1.52482E+11-1.31392E+11-4.41514E+12 2.06960E+10 1.58065E+12-1.62862E+13
 -1        32-3.56625E+11-9.24866E+11-9.78384E+12-1.05922E+12 1.64759E+11 6.79837E+12
 -1        33-3.63200E+11-1.15365E+12-3.59649E+13 4.81239E+10 5.06649E+12-7.35003E+12
 -1        34-5.35242E+11-7.74269E+11-2.92833E+13-8.97244E+10 3.37599E+12-9.38706E+12
 -1        35-3.73230E-02-2.31750E-01-2.70874E-01-6.24718E-01 4.19490E+12-2.60399E+13
 -1        36 1.85847E+11 5.85098E+10 5.79377E+12-2.98729E+11 1.18406E+12-3.14503E+13
 -1        37-1.38401E+11-7.28688E+10 1.37787E+13-9.48113E+09 3.40739E+12-1.49953E+11
 -1        38-4.59607E+11-1.03778E+12-3.32939E+13 1.82152E+11 5.06755E+12-7.10482E+12
 -1        39 2.37733E+11-2.28299E+11 1.11705E+13-5.65931E+10 2.15774E+12-2.42576E+12
 -1        40-5.04413E+11-5.22199E+11-1.67797E+13-1.45481E+09 4.45341E+12-1.72620E+13
 -1        41-4.50262E+11-1.96149E+11-1.01362E+13-2.03517E+11 1.51285E+12-2.10816E+13
 -1        42 1.07880E-01-2.80563E-01-2.69501E-01-1.42311E-01 2.61267E+12-1.62181E+13
 -1        43 8.41237E+10 8.12586E+10 2.70314E+12 9.03074E+09 2.78083E+12-2.76445E+13
 -1        44 1.17388E+10 2.22958E+10-2.21968E+12 5.88542E+10 2.41567E+10-2.11514E+13
 -1        45-2.09255E+12-3.31080E+12-7.87388E+13 5.71062E+10-1.54407E+12 2.22266E+12
 -1        46-2.10995E+12-2.15046E+12-6.38592E+13-7.22569E+10-1.01606E+12 2.83654E+12
 -1        47-2.86194E-01-1.10951E+00 1.16577E-02-2.59338E-01-1.27964E+12 7.94340E+12
 -1        48 5.33354E+11 3.37100E+11 1.26845E+13-3.54487E+11-3.58060E+11 9.58484E+12
 -1        49-1.76509E+12-4.69585E+11-6.27538E+13-5.58892E+10 1.48143E+12-2.17877E+11
 -1        50-2.29928E+12-3.04204E+12-7.28930E+13 3.27670E+11-1.53111E+12 2.14822E+12
 -1        51-2.44675E+12 2.33664E+11-5.14006E+13 4.29916E+11 9.78509E+11-1.20510E+12
 -1        52-1.15930E+12-1.14686E+12-3.63520E+13-1.71129E+10-1.35809E+12 5.25492E+12
 -1        53-7.62019E+11-1.21324E+11-2.16173E+13-2.21398E+11-4.57542E+11 6.41162E+12
 -1        54-1.01379E-01-5.68756E-01-5.56030E-02-4.60159E-01 1.13481E+12-7.04437E+12
 -1        55 1.84753E+11 1.86758E+11 5.85614E+12 1.06229E+11-8.46542E+11 8.43037E+12
 -1        56 7.56479E+10 2.84347E+11 1.01093E+13 3.46933E+11 3.50989E+10-9.19598E+12
 -1        57 2.37850E+11 3.44518E+11 6.76542E+12-4.29515E+09-5.74364E+12 8.25281E+12
 -1        58 2.33223E+11 2.22466E+11 5.46568E+12 3.25913E+09-3.74474E+12 1.05119E+13
 -1        59 5.53788E+00 7.00717E+00 3.30160E+00 7.41979E-01-4.75428E+12 2.95122E+13
 -1        60-5.55002E+10-3.83165E+10-1.08988E+12 2.66622E+10-1.32949E+12 3.56537E+13
 -1        61-1.28879E+12-3.67064E+11-3.94201E+13-4.28461E+10-3.04931E+12 3.81757E+11
 -1        62 2.60021E+11 3.17479E+11 6.27276E+12-2.97440E+10-5.71365E+12 7.97779E+12
 -1        63-1.68014E+12 1.10470E+11-3.22698E+13 2.89746E+11-1.94540E+12 2.37338E+12
 -1        64 1.13165E+11 1.10168E+11 3.07350E+12 2.03790E+09-5.04939E+12 1.94888E+13
 -1        65 6.83912E+10 2.18742E+09 1.78589E+12 1.52762E+10-1.69102E+12 2.38057E+13
 -1        66 2.72772E+00 2.98360E+00 1.83948E+00 6.85196E-02-2.34308E+12 1.45447E+13
 -1        67-1.77476E+10-1.82304E+10-4.95127E+11-1.26503E+10-3.13956E+12 3.13441E+13
 -1        68 5.91323E+10 2.07617E+11 6.35039E+12 2.65967E+11-6.14992E+10 1.89286E+13
 -1        69 2.10183E+12 3.45028E+12 8.00237E+13-6.48243E+10-4.64943E+11 6.59620E+11
 -1        70 2.15655E+12 2.24404E+12 6.48597E+13 8.40174E+10-3.07181E+11 8.44249E+11
 -1        71-3.35388E+00-8.63403E-01-4.65637E-01-2.04292E-01-3.84140E+11 2.38455E+12
 -1        72-5.55824E+11-3.38595E+11-1.28914E+13 4.02397E+11-1.06262E+11 2.88614E+12
 -1        73 1.56736E+12 4.61016E+11 4.75801E+13 5.13158E+10-2.60084E+12 3.16799E+11
 -1        74 2.32202E+12 3.16414E+12 7.41247E+13-3.57130E+11-4.68201E+11 6.36048E+11
 -1        75 2.06803E+12-1.47694E+11 3.89030E+13-3.58493E+11-1.66279E+12 2.02263E+12
 -1        76 1.22386E+12 1.21801E+12 3.68306E+13 1.67300E+10-4.08285E+11 1.57223E+12
 -1        77 8.26023E+11 1.54329E+11 2.17949E+13 2.53192E+11-1.35499E+11 1.92475E+12
 -1        78 9.84680E-01 1.99255E+00 1.09186E+00 3.36617E-01-1.99708E+12 1.23969E+13
 -1        79-1.96216E+11-1.97158E+11-5.93324E+12-1.03852E+11-2.53279E+11 2.53443E+12
 -1        80-7.42674E+10-2.52495E+11-7.66493E+12-3.18543E+11-5.10349E+10 1.61447E+13
 -1        81 6.12757E+11 1.00457E+12 1.95050E+13-1.74883E+10 5.70804E+12-8.18942E+12
 -1        82 6.37906E+11 6.62563E+11 1.57463E+13 2.03079E+10 3.70183E+12-1.04276E+13
 -1        83 1.71532E+00-5.06908E-01 6.51627E-01 2.79762E-01 4.72686E+12-2.93420E+13
 -1        84-1.61831E+11-9.87122E+10-3.14217E+12 1.08559E+11 1.31928E+12-3.54327E+13
 -1        85 1.80578E+12 5.37609E+11 5.46074E+13 5.87105E+10 2.18866E+12-2.68925E+11
 -1        86 6.83398E+11 9.23260E+11 1.80982E+13-1.00320E+11 5.65964E+12-7.91304E+12
 -1        87 2.39981E+12-1.71736E+11 4.46278E+13-4.15570E+11 1.37427E+12-1.67846E+12
 -1        88 3.52725E+11 3.50908E+11 8.83760E+12 5.29249E+09 5.01885E+12-1.93724E+13
 -1        89 2.39122E+11 4.72666E+10 5.10484E+12 6.63435E+10 1.67299E+12-2.36518E+13
 -1        90-5.58472E-01-1.46651E+00-1.28479E-02 2.57263E-02 1.68396E+12-1.04532E+13
 -1        91-5.65296E+10-5.68224E+10-1.42370E+12-3.28531E+10 3.12080E+12-3.11546E+13
 -1        92-8.66063E+10-2.90903E+11-8.79699E+12-3.64446E+11 4.33225E+10-1.35861E+13
 -1        93-1.43713E+12-2.65533E+12-7.77468E+13 6.44068E+10 2.84942E+12-4.21300E+12
 -1        94-1.50855E+12-1.74794E+12-6.32387E+13-9.60327E+10 1.84379E+12-5.33328E+12
 -1        95-1.29022E+00 3.79349E-01-2.14752E-01-4.21585E-01 2.36939E+12-1.47080E+13
 -1        96 4.27761E+11 2.31515E+11 1.25246E+13-3.99806E+11 6.78695E+11-1.76878E+13
 -1        97-8.32534E+11-1.76328E+11-3.18283E+13-2.70577E+10 3.56093E+12-4.74519E+11
 -1        98-1.58599E+12-2.42422E+12-7.18169E+13 3.08394E+11 2.77623E+12-4.10315E+12
 -1        99-1.14090E+12 7.94957E+10-2.62038E+13 1.94106E+11 2.23471E+12-2.76468E+12
 -1       100-1.00191E+12-1.02654E+12-3.64401E+13-1.04593E+10 2.51174E+12-9.75652E+12
 -1       101-6.99070E+11-2.25148E+11-2.21166E+13-2.57079E+11 8.76159E+11-1.18615E+13
 -1       102 4.83765E-01 5.91278E-01 5.10315E-01-3.25333E-01 2.74357E+12-1.70307E+13
 -1       103 1.65371E+11 1.61403E+11 5.87033E+12 6.49261E+10 1.57173E+12-1.55917E+13
 -1       104 2.84056E+10 1.34117E+11 5.12739E+12 1.67961E+11 7.64427E+10-2.21045E+13
 -1       105-6.78885E+11-9.82631E+11-6.01485E+13 2.32596E+10-3.43813E+12 5.06463E+12
 -1       106-6.78525E+11-7.90178E+11-4.98799E+13-9.58751E+10-2.46436E+12 6.59184E+12
 -1       107 7.18315E+00 4.97350E+00 3.34795E+00-2.71991E+00-2.82755E+12 1.75521E+13
 -1       108 1.58297E+11 1.09365E+11 9.68964E+12-1.44384E+11-8.15888E+11 2.13422E+13
 -1       109-2.03394E+12-4.64883E+11-7.52287E+13-7.26551E+10-2.92177E+11 9.33736E+10
 -1       110-8.66828E+11-1.10968E+12-5.57782E+13 6.85658E+10-3.53564E+12 5.03087E+12
 -1       111-2.56216E+12 1.74551E+11-6.19039E+13 4.35937E+11-4.46150E+11 5.44515E+11
 -1       112-1.68074E+11-1.37357E+11-2.87766E+13-1.60883E+09-3.01842E+12 1.16426E+13
 -1       113 4.43631E+10 1.80494E+11-1.83236E+13-1.25076E+11-1.15855E+12 1.43670E+13
 -1       114 2.29382E+00 2.72691E+00 1.68732E+00-1.49213E+00-2.01838E+11 1.25291E+12
 -1       115 2.21275E+10 2.70759E+10 4.63578E+12 9.98682E+09-1.87556E+12 1.87369E+13
 -1       116 7.48904E+10 3.27659E+11 1.21190E+13 4.51007E+11-1.50420E+10 1.81369E+12
 -1       117 1.98118E+12 2.70363E+12 3.75547E+12 8.31382E+10-1.67597E+12 3.14342E+12
 -1       118 2.03393E+12 6.30257E+11 2.55571E+12-6.72857E+10-1.06856E+12 3.76688E+12
 -1       119-2.54980E+00-1.07514E+01-2.73712E+00 2.78024E+00-1.33278E+12 8.27327E+12
 -1       120-4.35542E+11-3.19158E+11-6.04989E+11-5.16081E+11-5.06390E+11 1.04036E+13
 -1       121 8.87558E+11 1.16841E+12-2.36346E+13 5.68662E+10-1.96547E+12-1.95696E+11
 -1       122 2.08882E+12 1.55014E+12 3.51743E+12-2.17199E+11-1.61356E+12 2.66468E+12
 -1       123 7.45435E+11 1.37300E+11-1.99312E+13-1.24705E+11-1.18991E+12 1.07917E+12
 -1       124 2.33345E+12 1.51519E+12 1.31151E+12 9.56195E+10-1.38596E+12 6.21845E+12
 -1       125 2.16075E+12 2.69822E+11 2.24919E+11-2.91131E+11-4.38331E+11 7.59715E+12
 -1       126 1.05405E+00-6.06080E+00-1.52450E+00 3.62831E-01-1.45088E+12 9.00635E+12
 -1       127-2.44089E+11-3.75907E+11-2.11278E+11-5.93559E+11-1.00176E+12 8.60336E+12
 -1       128-1.88226E+11-1.42981E+11 3.80742E+12-3.52997E+11 3.15256E+10 1.22007E+13
 -1       129 4.60036E+13 4.60036E+13 1.07342E+14 1.00121E+06-1.23554E+13 3.12048E+13
 -1       130 4.01836E+13 4.01836E+13 9.37617E+13 2.90110E+05-4.31478E+12 3.29120E+13
 -1       131-2.46217E+12-9.40063E+11-3.77532E+13-2.11949E+11-5.78544E+12 2.90126E+12
 -1       132-2.66360E+12-1.50639E+12-4.34386E+13-1.52614E+12 2.89440E+12 5.25944E+12
 -1       133 2.37251E+13 2.37251E+13 5.53588E+13 2.26545E+07-8.81200E+12 2.91261E+13
 -1       134 1.78766E+13 1.78766E+13 4.17123E+13 1.92766E+06-4.48448E+12 3.11670E+13
 -1       135 1.85435E+12 1.10382E+12-1.66102E+13-5.60714E+10-5.11635E+12 1.64436E+13
 -1       136 1.60877E+12 6.48730E+11-2.23504E+13-1.36132E+12 8.10063E+11 2.07204E+13
 -1       137 4.32021E+13 4.32020E+13 1.00805E+14 1.44252E+07-8.35019E+12 3.19177E+13
 -1       138 6.80078E+12 2.92240E+12 2.61641E+13 4.07951E+11-4.01635E+12 9.44930E+12
 -1       139-2.42296E+12-8.74014E+11-4.05465E+13-5.46961E+11-7.43291E+11 3.20929E+12
 -1       140 7.03067E+12 3.23981E+12 2.80848E+13 2.61067E+12-1.39425E+12 9.82107E+12
 -1       141-2.18445E+11-2.36169E+12-6.10790E+13 1.30183E+11 2.98138E+12-3.91998E+12
 -1       142-1.26986E+12-1.94404E+12-6.86562E+13 3.18502E+11-2.16484E+11-4.76494E+12
 -1       143-8.15618E+11-9.46533E+11-2.74070E+13 3.33403E+09 2.62363E+12-9.81187E+12
 -1       144-1.39677E+12-4.54177E+11-3.54684E+13 4.19803E+11 4.36676E+11-1.17517E+13
 -1       145-5.74111E+12-2.21375E+12-6.07333E+13-1.70636E+11-1.09519E+12-1.02274E+12
 -1       146-5.98247E+11-2.49481E+12-6.51527E+13-3.11258E+11 8.54300E+11-3.76709E+12
 -1       147-6.49843E+12-2.65645E+12-6.76953E+13-1.27548E+12 2.72838E+11-5.94929E+11
 -1       148 3.63200E+11 1.15365E+12 3.59649E+13-4.81239E+10 5.06649E+12-7.35003E+12
 -1       149 8.19872E+11 9.92572E+11 4.05299E+13-1.24184E+11-4.50881E+11-8.77057E+12
 -1       150 5.04413E+11 5.22199E+11 1.67797E+13 1.45481E+09 4.45341E+12-1.72620E+13
 -1       151 8.17524E+11 3.58627E+11 2.16891E+13-1.54110E+11 7.56627E+11-2.05287E+13
 -1       152 1.38401E+11 7.28688E+10-1.37787E+13 9.48113E+09 3.40739E+12-1.49953E+11
 -1       153 5.48978E+11 1.24201E+12 3.84208E+13 1.24540E+11 1.63568E+12-6.98299E+12
 -1       154-1.74886E+11 1.61828E+11-1.54607E+13-7.83282E+10-1.47033E+12-1.84130E+12
 -1       155 2.09255E+12 3.31080E+12 7.87388E+13-5.71062E+10-1.54407E+12 2.22266E+12
 -1       156 2.93370E+12 2.96297E+12 8.83850E+13-1.00008E+11 1.31942E+11 2.65161E+12
 -1       157 1.15930E+12 1.14686E+12 3.63520E+13 1.71129E+10-1.35809E+12 5.25492E+12
 -1       158 1.80885E+12 8.88332E+11 4.68804E+13-1.24811E+11-2.28653E+11 6.24681E+12
 -1       159 1.76509E+12 4.69585E+11 6.27538E+13 5.58892E+10 1.48143E+12-2.17877E+11
 -1       160 2.46193E+12 3.45620E+12 8.39277E+13 2.71898E+11-5.08099E+11 2.11134E+12
 -1       161 2.49984E+12 5.63208E+11 7.11416E+13 5.95030E+11-6.32033E+11-9.45649E+11
 -1       162-2.37850E+11-3.44518E+11-6.76542E+12 4.29515E+09-5.74364E+12 8.25281E+12
 -1       163-3.19236E+11-3.11464E+11-7.56483E+12 4.51084E+09 4.67228E+11 9.83332E+12
 -1       164-1.13165E+11-1.10168E+11-3.07350E+12-2.03790E+09-5.04939E+12 1.94888E+13
 -1       165-1.77050E+11-8.83125E+10-3.95593E+12 6.25162E+09-8.57727E+11 2.31843E+13
 -1       166 1.28879E+12 3.67064E+11 3.94201E+13 4.28461E+10-3.04931E+12 3.81757E+11
 -1       167-2.74600E+11-3.57018E+11-7.19774E+12-2.62760E+10-1.85622E+12 7.84355E+12
 -1       168 1.73313E+12 4.39392E+11 4.46634E+13 4.01027E+11 1.26401E+12 1.85636E+12
 -1       169-2.10183E+12-3.45028E+12-8.00237E+13 6.48243E+10-4.64943E+11 6.59620E+11
 -1       170-3.01373E+12-3.07695E+12-8.97698E+13 1.16285E+11 4.42934E+10 7.87628E+11
 -1       171-1.22386E+12-1.21801E+12-3.68306E+13-1.67300E+10-4.08285E+11 1.57223E+12
 -1       172-1.91666E+12-9.30619E+11-4.74748E+13 1.48554E+11-6.76698E+10 1.87244E+12
 -1       173-1.56736E+12-4.61016E+11-4.75801E+13-5.13158E+10-2.60084E+12 3.16799E+11
 -1       174-2.49680E+12-3.60597E+12-8.52838E+13-2.92411E+11-1.43509E+11 6.25121E+11
 -1       175-2.12937E+12-5.28486E+11-5.38442E+13-4.96176E+11 1.08236E+12 1.58040E+12
 -1       176-6.12757E+11-1.00457E+12-1.95050E+13 1.74883E+10 5.70804E+12-8.18942E+12
 -1       177-8.91057E+11-9.08872E+11-2.17938E+13 2.81074E+10-4.49891E+11-9.75881E+12
 -1       178-3.52725E+11-3.50908E+11-8.83760E+12-5.29249E+09 5.01885E+12-1.93724E+13
 -1       179-5.57255E+11-2.75836E+11-1.13633E+13 3.66953E+10 8.55292E+11-2.30401E+13
 -1       180-1.80578E+12-5.37609E+11-5.46074E+13-5.87105E+10 2.18866E+12-2.68925E+11
 -1       181-7.35448E+11-1.05155E+12-2.07512E+13-8.37214E+10 1.86221E+12-7.78131E+12
 -1       182-2.47088E+12-6.12908E+11-6.17676E+13-5.75175E+11-8.92312E+11-1.31333E+12
 -1       183 1.43713E+12 2.65533E+12 7.77468E+13-6.44068E+10 2.84942E+12-4.21300E+12
 -1       184 2.16711E+12 2.34007E+12 8.75262E+13-1.32915E+11-1.77922E+11-5.00759E+12
 -1       185 1.00191E+12 1.02654E+12 3.64401E+13 1.04593E+10 2.51174E+12-9.75652E+12
 -1       186 1.53819E+12 7.61750E+11 4.70503E+13-1.68769E+11 4.34371E+11-1.15752E+13
 -1       187 8.32534E+11 1.76328E+11 3.18283E+13 2.70577E+10 3.56093E+12-4.74519E+11
 -1       188 1.74497E+12 2.78463E+12 8.29593E+13 2.39792E+11 9.99307E+11-4.03198E+12
 -1       189 1.17540E+12 2.93649E+11 3.62677E+13 2.68655E+11-1.43930E+12-2.17281E+12
 -1       190 6.78885E+11 9.82631E+11 6.01485E+13-2.32596E+10-3.43813E+12 5.06463E+12
 -1       191 9.76052E+11 1.05672E+12 6.90368E+13-1.32697E+11 4.15265E+11 6.12794E+12
 -1       192 1.68074E+11 1.37357E+11 2.87766E+13 1.60883E+09-3.01842E+12 1.16426E+13
 -1       193 3.20329E+11 9.66125E+10 3.77500E+13-1.09061E+11-4.43798E+11 1.39631E+13
 -1       194 2.03394E+12 4.64883E+11 7.52287E+13 7.26551E+10-2.92177E+11 9.33736E+10
 -1       195 8.53315E+11 1.15414E+12 6.48114E+13 3.08475E+10-1.02820E+12 4.91573E+12
 -1       196 2.64095E+12 6.63646E+11 8.56788E+13 6.03364E+11 2.89812E+11 4.25955E+11
 -1       197-1.98118E+12-2.70363E+12-3.75547E+12-8.31382E+10-1.67597E+12 3.14342E+12
 -1       198-2.35078E+12-1.33661E+12-3.53726E+12-9.31275E+10-1.20486E+11 3.61415E+12
 -1       199-2.33345E+12-1.51519E+12-1.31151E+12-9.56195E+10-1.38596E+12 6.21845E+12
 -1       200-2.78864E+12-9.75129E+11-1.40038E+12-3.78488E+11-4.19721E+11 7.46825E+12
 -1       201-8.87558E+11-1.16841E+12 2.36346E+13-5.68662E+10-1.96547E+12-1.95696E+11
 -1       202-2.28938E+12-2.34746E+12-3.77925E+12-3.25071E+11-8.13402E+11 2.66168E+12
 -1       203-8.30572E+11-3.91187E+11 2.75859E+13-1.72599E+11 8.96357E+11 7.43080E+11
 -1       204-4.60036E+13-4.60036E+13-1.07342E+14-1.00121E+06-1.23554E+13 3.12048E+13
 -1       205 2.66360E+12 1.50639E+12 4.34386E+13 1.52614E+12 2.89440E+12 5.25944E+12
 -1       206-6.47339E+12-6.47339E+12-1.51046E+13-1.80086E+06-5.30196E+12 2.67840E+13
 -1       207 1.51440E+11 3.96644E+11 6.08186E+12 1.31567E+12-4.67380E+11 3.59132E+13
 -1       208-4.32021E+13-4.32020E+13-1.00805E+14-1.44252E+07-8.35019E+12 3.19177E+13
 -1       209-7.03067E+12-3.23981E+12-2.80848E+13-2.61067E+12-1.39425E+12 9.82107E+12
 -1       210 2.42296E+12 8.74014E+11 4.05465E+13 5.46961E+11-7.43291E+11 3.20929E+12
 -1       211-2.37251E+13-2.37251E+13-5.53588E+13-2.26545E+07-8.81200E+12 2.91261E+13
 -1       212-1.60877E+12-6.48730E+11 2.23504E+13 1.36132E+12 8.10063E+11 2.07204E+13
 -1       213-2.87984E+12-2.87984E+12-6.71965E+12-1.19659E+07-5.02085E+12 2.78374E+13
 -1       214-4.70784E+11-1.09557E+12-4.21492E+12-2.53236E+12-1.52224E+12 2.49315E+13
 -1       215-1.77820E+11-2.98727E+11 2.67582E+12 3.48063E+11-2.64898E+12 3.17598E+13
 -1       216 1.26986E+12 1.94404E+12 6.86562E+13-3.18502E+11-2.16484E+11-4.76494E+12
 -1       217 3.80458E+11 3.51905E+10 9.83954E+12-8.08111E+11 6.31489E+11-1.85070E+13
 -1       218 6.49843E+12 2.65645E+12 6.76953E+13 1.27548E+12 2.72838E+11-5.94929E+11
 -1       219 5.98247E+11 2.49481E+12 6.51527E+13 3.11258E+11 8.54300E+11-3.76709E+12
 -1       220 1.39677E+12 4.54177E+11 3.54684E+13-4.19803E+11 4.36676E+11-1.17517E+13
 -1       221 3.56625E+11 9.24866E+11 9.78384E+12 1.05922E+12 1.64759E+11 6.79837E+12
 -1       222 1.52482E+11 1.31392E+11 4.41514E+12-2.06960E+10 1.58065E+12-1.62862E+13
 -1       223-8.19872E+11-9.92572E+11-4.05299E+13 1.24184E+11-4.50881E+11-8.77057E+12
 -1       224-1.85847E+11-5.85098E+10-5.79377E+12 2.98729E+11 1.18406E+12-3.14503E+13
 -1       225 1.74886E+11-1.61828E+11 1.54607E+13 7.83282E+10-1.47033E+12-1.84130E+12
 -1       226-5.48978E+11-1.24201E+12-3.84208E+13-1.24540E+11 1.63568E+12-6.98299E+12
 -1       227-8.17524E+11-3.58627E+11-2.16891E+13 1.54110E+11 7.56627E+11-2.05287E+13
 -1       228-1.17388E+10-2.22958E+10 2.21968E+12-5.88542E+10 2.41567E+10-2.11514E+13
 -1       229-8.41237E+10-8.12586E+10-2.70314E+12-9.03074E+09 2.78083E+12-2.76445E+13
 -1       230-2.93370E+12-2.96297E+12-8.83850E+13 1.00008E+11 1.31942E+11 2.65161E+12
 -1       231-5.33354E+11-3.37100E+11-1.26845E+13 3.54487E+11-3.58060E+11 9.58484E+12
 -1       232-2.49984E+12-5.63208E+11-7.11416E+13-5.95030E+11-6.32033E+11-9.45649E+11
 -1       233-2.46193E+12-3.45620E+12-8.39277E+13-2.71898E+11-5.08099E+11 2.11134E+12
 -1       234-1.80885E+12-8.88332E+11-4.68804E+13 1.24811E+11-2.28653E+11 6.24681E+12
 -1       235-7.56479E+10-2.84347E+11-1.01093E+13-3.46933E+11 3.50989E+10-9.19598E+12
 -1       236-1.84753E+11-1.86758E+11-5.85614E+12-1.06229E+11-8.46542E+11 8.43037E+12
 -1       237 3.19236E+11 3.11464E+11 7.56483E+12-4.51084E+09 4.67228E+11 9.83332E+12
 -1       238 5.55002E+10 3.83165E+10 1.08988E+12-2.66622E+10-1.32949E+12 3.56537E+13
 -1       239-1.73313E+12-4.39392E+11-4.46634E+13-4.01027E+11 1.26401E+12 1.85636E+12
 -1       240 2.74600E+11 3.57018E+11 7.19774E+12 2.62760E+10-1.85622E+12 7.84355E+12
 -1       241 1.77050E+11 8.83125E+10 3.95593E+12-6.25162E+09-8.57727E+11 2.31843E+13
 -1       242-5.91323E+10-2.07617E+11-6.35039E+12-2.65967E+11-6.14992E+10 1.89286E+13
 -1       243 1.77476E+10 1.82304E+10 4.95127E+11 1.26503E+10-3.13956E+12 3.13441E+13
 -1       244 3.01373E+12 3.07695E+12 8.97698E+13-1.16285E+11 4.42934E+10 7.87628E+11
 -1       245 5.55824E+11 3.38595E+11 1.28914E+13-4.02397E+11-1.06262E+11 2.88614E+12
 -1       246 2.12937E+12 5.28486E+11 5.38442E+13 4.96176E+11 1.08236E+12 1.58040E+12
 -1       247 2.49680E+12 3.60597E+12 8.52838E+13 2.92411E+11-1.43509E+11 6.25121E+11
 -1       248 1.91666E+12 9.30619E+11 4.74748E+13-1.48554E+11-6.76698E+10 1.87244E+12
 -1       249 7.42674E+10 2.52495E+11 7.66493E+12 3.18543E+11-5.10349E+10 1.61447E+13
 -1       250 1.96216E+11 1.97158E+11 5.93324E+12 1.03852E+11-2.53279E+11 2.53443E+12
 -1       251 8.91057E+11 9.08872E+11 2.17938E+13-2.81074E+10-4.49891E+11-9.75881E+12
 -1       252 1.61831E+11 9.87122E+10 3.14217E+12-1.08559E+11 1.31928E+12-3.54327E+13
 -1       253 2.47088E+12 6.12908E+11 6.17676E+13 5.75175E+11-8.92312E+11-1.31333E+12
 -1       254 7.35448E+11 1.05155E+12 2.07512E+13 8.37214E+10 1.86221E+12-7.78131E+12
 -1       255 5.57255E+11 2.75836E+11 1.13633E+13-3.66953E+10 8.55292E+11-2.30401E+13
 -1       256 8.66063E+10 2.90903E+11 8.79699E+12 3.64446E+11 4.33225E+10-1.35861E+13
 -1       257 5.65296E+10 5.68224E+10 1.42370E+12 3.28531E+10 3.12080E+12-3.11546E+13
 -1       258-2.16711E+12-2.34007E+12-8.75262E+13 1.32915E+11-1.77922E+11-5.00759E+12
 -1       259-4.27761E+11-2.31515E+11-1.25246E+13 3.99806E+11 6.78695E+11-1.76878E+13
 -1       260-1.17540E+12-2.93649E+11-3.62677E+13-2.68655E+11-1.43930E+12-2.17281E+12
 -1       261-1.74497E+12-2.78463E+12-8.29593E+13-2.39792E+11 9.99307E+11-4.03198E+12
 -1       262-1.53819E+12-7.61750E+11-4.70503E+13 1.68769E+11 4.34371E+11-1.15752E+13
 -1       263-2.84056E+10-1.34117E+11-5.12739E+12-1.67961E+11 7.64427E+10-2.21045E+13
 -1       264-1.65371E+11-1.61403E+11-5.87033E+12-6.49261E+10 1.57173E+12-1.55917E+13
 -1       265-9.76052E+11-1.05672E+12-6.90368E+13 1.32697E+11 4.15265E+11 6.12794E+12
 -1       266-1.58297E+11-1.09365E+11-9.68964E+12 1.44384E+11-8.15888E+11 2.13422E+13
 -1       267-2.64095E+12-6.63646E+11-8.56788E+13-6.03364E+11 2.89812E+11 4.25955E+11
 -1       268-8.53315E+11-1.15414E+12-6.48114E+13-3.08475E+10-1.02820E+12 4.91573E+12
 -1       269-3.20329E+11-9.66125E+10-3.77500E+13 1.09061E+11-4.43798E+11 1.39631E+13
 -1       270-7.48904E+10-3.27659E+11-1.21190E+13-4.51007E+11-1.50420E+10 1.81369E+12
 -1       271-2.21275E+10-2.70759E+10-4.63578E+12-9.98682E+09-1.87556E+12 1.87369E+13
 -1       272 2.35078E+12 1.33661E+12 3.53726E+12 9.31275E+10-1.20486E+11 3.61415E+12
 -1       273 4.35542E+11 3.19158E+11 6.04989E+11 5.16081E+11-5.06390E+11 1.04036E+13
 -1       274 8.30572E+11 3.91187E+11-2.75859E+13 1.72599E+11 8.96357E+11 7.43080E+11
 -1       275 2.28938E+12 2.34746E+12 3.77925E+12 3.25071E+11-8.13402E+11 2.66168E+12
 -1       276 2.78864E+12 9.75129E+11 1.40038E+12 3.78488E+11-4.19721E+11 7.46825E+12
 -1       277 1.88226E+11 1.42981E+11-3.80742E+12 3.52997E+11 3.15256E+10 1.22007E+13
 -1       278 2.44089E+11 3.75907E+11 2.11278E+11 5.93559E+11-1.00176E+12 8.60336E+12
 -1       279 3.32381E+13 3.32381E+13 7.75557E+13-7.23389E+05 2.69204E+12 2.87807E+13
 -1       280-2.30726E+12-7.05608E+11-3.13849E+13 1.10265E+12-4.78832E+12 6.49709E+12
 -1       281 1.06992E+13 1.06992E+13 2.49650E+13-1.90902E+07-1.27599E+12 2.79161E+13
 -1       282 1.98360E+12 1.48475E+12-1.01296E+13 1.25294E+12-1.91478E+12 2.15786E+13
 -1       283 3.76565E+13 3.76564E+13 8.78652E+13-7.70028E+06-8.39029E+11 3.07036E+13
 -1       284 6.33366E+12 1.08688E+12 2.02916E+13-1.88624E+12-1.78002E+12 9.88321E+12
 -1       285-2.76665E+12-1.45273E+12-3.53141E+13 1.25816E+11-6.07087E+12 3.64825E+12
 -1       286-6.94488E+11-1.62760E+12-4.96049E+13-2.30121E+11 1.80414E+12-5.09045E+12
 -1       287-6.45977E+11-2.80494E+11-1.58076E+13-5.45129E+11 7.86114E+11-1.20953E+13
 -1       288-5.96603E+12-6.48482E+11-4.89106E+13 9.21547E+11-9.05887E+10-5.36383E+11
 -1       289-4.79894E+11-2.16573E+12-5.68924E+13 4.66704E+11 2.98733E+12-3.82338E+12
 -1       290 5.35242E+11 7.74269E+11 2.92833E+13 8.97244E+10 3.37599E+12-9.38706E+12
 -1       291 4.50262E+11 1.96149E+11 1.01362E+13 2.03517E+11 1.51285E+12-2.10816E+13
 -1       292-2.37733E+11 2.28299E+11-1.11705E+13 5.65931E+10 2.15774E+12-2.42576E+12
 -1       293 4.59607E+11 1.03778E+12 3.32939E+13-1.82152E+11 5.06755E+12-7.10482E+12
 -1       294 2.10995E+12 2.15046E+12 6.38592E+13 7.22569E+10-1.01606E+12 2.83654E+12
 -1       295 7.62019E+11 1.21324E+11 2.16173E+13 2.21398E+11-4.57542E+11 6.41162E+12
 -1       296 2.44675E+12-2.33664E+11 5.14006E+13-4.29916E+11 9.78509E+11-1.20510E+12
 -1       297 2.29928E+12 3.04204E+12 7.28930E+13-3.27670E+11-1.53111E+12 2.14822E+12
 -1       298-2.33223E+11-2.22466E+11-5.46568E+12-3.25913E+09-3.74474E+12 1.05119E+13
 -1       299-6.83912E+10-2.18742E+09-1.78589E+12-1.52762E+10-1.69102E+12 2.38057E+13
 -1       300 1.68014E+12-1.10470E+11 3.22698E+13-2.89746E+11-1.94540E+12 2.37338E+12
 -1       301-2.60021E+11-3.17479E+11-6.27276E+12 2.97440E+10-5.71365E+12 7.97779E+12
 -1       302-2.15655E+12-2.24404E+12-6.48597E+13-8.40174E+10-3.07181E+11 8.44249E+11
 -1       303-8.26023E+11-1.54329E+11-2.17949E+13-2.53192E+11-1.35499E+11 1.92475E+12
 -1       304-2.06803E+12 1.47694E+11-3.89030E+13 3.58493E+11-1.66279E+12 2.02263E+12
 -1       305-2.32202E+12-3.16414E+12-7.41247E+13 3.57130E+11-4.68201E+11 6.36048E+11
 -1       306-6.37906E+11-6.62563E+11-1.57463E+13-2.03079E+10 3.70183E+12-1.04276E+13
 -1       307-2.39122E+11-4.72666E+10-5.10484E+12-6.63435E+10 1.67299E+12-2.36518E+13
 -1       308-2.39981E+12 1.71736E+11-4.46278E+13 4.15570E+11 1.37427E+12-1.67846E+12
 -1       309-6.83398E+11-9.23260E+11-1.80982E+13 1.00320E+11 5.65964E+12-7.91304E+12
 -1       310 1.50855E+12 1.74794E+12 6.32387E+13 9.60327E+10 1.84379E+12-5.33328E+12
 -1       311 6.99070E+11 2.25148E+11 2.21166E+13 2.57079E+11 8.76159E+11-1.18615E+13
 -1       312 1.14090E+12-7.94957E+10 2.62038E+13-1.94106E+11 2.23471E+12-2.76468E+12
 -1       313 1.58599E+12 2.42422E+12 7.18169E+13-3.08394E+11 2.77623E+12-4.10315E+12
 -1       314 6.78525E+11 7.90178E+11 4.98799E+13 9.58751E+10-2.46436E+12 6.59184E+12
 -1       315-4.43631E+10-1.80494E+11 1.83236E+13 1.25076E+11-1.15855E+12 1.43670E+13
 -1       316 2.56216E+12-1.74551E+11 6.19039E+13-4.35937E+11-4.46150E+11 5.44515E+11
 -1       317 8.66828E+11 1.10968E+12 5.57782E+13-6.85658E+10-3.53564E+12 5.03087E+12
 -1       318-2.03393E+12-6.30257E+11-2.55571E+12 6.72857E+10-1.06856E+12 3.76688E+12
 -1       319-2.16075E+12-2.69822E+11-2.24919E+11 2.91131E+11-4.38331E+11 7.59715E+12
 -1       320-7.45435E+11-1.37300E+11 1.99312E+13 1.24705E+11-1.18991E+12 1.07917E+12
 -1       321-2.08882E+12-1.55014E+12-3.51743E+12 2.17199E+11-1.61356E+12 2.66468E+12
 -3
    1PSTEP                        51           1           1          
    1PGM                1.000000E+00                                  
    1PGK                5.411283E+10                                  
    1PHID                         -1                                  
    1PSUBC                         0                                  
    1PMODE                        13                                  
  100CL  113 37022.88488         321                     2   13MODAL      1
 -4  TOSTRAIN    6    1
 -5  EXX         1    4    1    1
 -5  EYY         1    4    2    2
 -5  EZZ         1    4    3    3
 -5  EXY         1    4    1    2
 -5  EYZ         1    4    2    3
 -5  EZX         1    4    3    1
 -1         1-4.53900E-06 3.76900E-06-2.74347E+02 4.47812E-06 1.66650E+01 1.78166E+02
 -1         2 9.60216E-06 2.15459E-06-3.31674E+02-1.79592E-06-2.67106E+01 2.03741E+02
 -1         3-4.35515E+01-5.29740E+01 1.74917E+02 1.31206E+00-3.58146E+01 1.79602E+01
 -1         4-3.48567E+01-4.47716E+01 1.45148E+02-6.82594E+00-2.96420E+01 4.02201E+01
 -1         5-3.47094E-07-1.54686E-06 5.34311E+01 1.11482E-05-3.28217E+01 1.65806E+02
 -1         6-1.30396E-13-2.62568E-14-1.28919E-12 1.36026E-13-2.90845E+01 1.80543E+02
 -1         7-1.57740E-12 6.92280E-13-2.19780E-12-6.88338E-14-2.93682E+01 1.82303E+02
 -1         8 8.53387E+00 7.01593E+00-2.81783E+01-8.14464E+00-2.89330E+00 2.22320E+02
 -1         9 1.49586E-04 4.12605E-04-3.10816E+02 4.76684E-05-5.19399E+00 1.90070E+02
 -1        10 9.16748E+00 3.31765E+01-1.10701E+02-2.52541E+00-2.48631E+01 5.84956E+01
 -1        11-3.93495E+01-4.74834E+01 1.62135E+02-7.78863E-01-3.75816E+01 2.25844E+01
 -1        12 3.80451E-01 3.28605E+01-8.60260E+01 1.16767E+01-1.10191E+01 6.11818E+01
 -1        13 9.75210E-05 2.66960E-04-8.83116E+01 1.18177E-04-7.89898E+00 1.72814E+02
 -1        14 1.80667E-04 2.99963E-04-1.47554E+02-1.19331E-05-2.77610E+01 1.92939E+02
 -1        15-3.09822E+01-2.63360E+01 8.33220E+01 3.47109E-01-3.16727E+01 1.01794E+02
 -1        16-2.17955E+01-1.87073E+01 5.31908E+01-7.75629E+00-1.18534E+01 1.33582E+02
 -1        17-4.83227E-05-2.91046E-05 2.37702E+01 7.40748E-05-3.10815E+01 1.72327E+02
 -1        18-4.29878E-13 1.00708E-12-1.69675E-12-4.07674E-13-2.24542E+01 1.39384E+02
 -1        19 4.24261E+00 4.99108E+00-1.34228E+01-2.15468E+00-1.63985E+01 1.96608E+02
 -1        20-5.34458E+00-1.47684E+00 1.78334E+01 1.56765E+01-9.42337E+00 1.54338E+02
 -1        21-8.95894E+01-7.63217E+01 2.87167E+02-8.05894E-01 1.84562E+01-2.42665E+01
 -1        22-6.98822E+01-6.41058E+01 2.32896E+02 1.42456E+00 1.11685E+01-3.15123E+01
 -1        23-2.47358E-13-2.44460E-12-6.84064E-13 1.16807E-12 1.52415E+01-9.46115E+01
 -1        24 1.22951E+01 1.44324E+01-4.62612E+01 5.00259E+00 3.90922E+00-1.14567E+02
 -1        25-6.25857E+01-8.44217E+01 2.77842E+02 1.05632E+00-6.77972E+00-6.33125E+00
 -1        26-8.20835E+01-7.16474E+01 2.67137E+02-2.88912E+00 1.84930E+01-2.36686E+01
 -1        27-4.23891E+01-7.53072E+01 2.23458E+02-5.70482E+00-5.60787E-01-3.32047E+00
 -1        28-3.66212E+01-3.58107E+01 1.27992E+02-2.06392E-02 1.62415E+01-6.07402E+01
 -1        29-1.99068E+01-2.21694E+01 7.39505E+01 3.37461E+00 4.86642E+00-7.48756E+01
 -1        30 6.15064E-14-1.01708E-12-1.89226E-12 1.07137E-12-5.65617E+00 3.51107E+01
 -1        31 5.76894E+00 5.89950E+00-2.06189E+01 1.28118E-01 9.78495E+00-1.00819E+02
 -1        32 1.35999E+01 1.00823E+01-4.47590E+01-6.55709E+00 1.01993E+00 4.20851E+01
 -1        33 5.12969E+01 4.64037E+01-1.69094E+02 2.97910E-01 3.13640E+01-4.55002E+01
 -1        34 4.03907E+01 3.89110E+01-1.37574E+02-5.55436E-01 2.08990E+01-5.81104E+01
 -1        35 5.41123E-13-6.67078E-13-8.92841E-13-3.86730E-12 2.59684E+01-1.61199E+02
 -1        36-7.47541E+00-8.26369E+00 2.72403E+01-1.84928E+00 7.32987E+00-1.94692E+02
 -1        37-2.02387E+01-1.98331E+01 6.59144E+01-5.86927E-02 2.10934E+01-9.28281E-01
 -1        38 4.68567E+01 4.32775E+01-1.56403E+02 1.12761E+00 3.13705E+01-4.39822E+01
 -1        39-1.44997E+01-1.73846E+01 5.31794E+01-3.50338E-01 1.33574E+01-1.50166E+01
 -1        40 2.23151E+01 2.22050E+01-7.84369E+01-9.00596E-03 2.75687E+01-1.06860E+02
 -1        41 1.26164E+01 1.41895E+01-4.73442E+01-1.25987E+00 9.36528E+00-1.30505E+02
 -1        42 1.29796E-12-1.10514E-12-1.04416E-12-8.80948E-13 1.61737E+01-1.00398E+02
 -1        43-3.57712E+00-3.59485E+00 1.26358E+01 5.59046E-02 1.72147E+01-1.71133E+02
 -1        44 3.19501E+00 3.26037E+00-1.06185E+01 3.64335E-01 1.49542E-01-1.30937E+02
 -1        45 1.07249E+02 9.97077E+01-3.67228E+02 3.53515E-01-9.55854E+00 1.37593E+01
 -1        46 8.42522E+01 8.40014E+01-2.98005E+02-4.47305E-01-6.28988E+00 1.75596E+01
 -1        47 2.06724E-13-4.88690E-12 2.03277E-12-1.60499E-12-7.92160E+00 4.91734E+01
 -1        48-1.60624E+01-1.72773E+01 5.91587E+01-2.19444E+00-2.21656E+00 5.93347E+01
 -1        49 8.19139E+01 8.99337E+01-2.95635E+02-3.45981E-01 9.17075E+00-1.34876E+00
 -1        50 9.75298E+01 9.29317E+01-3.39479E+02 2.02844E+00-9.47832E+00 1.32985E+01
 -1        51 6.14444E+01 7.80375E+01-2.41603E+02 2.66139E+00 6.05743E+00-7.46014E+00
 -1        52 4.80494E+01 4.81264E+01-1.69810E+02-1.05937E-01-8.40724E+00 3.25304E+01
 -1        53 2.74266E+01 3.13928E+01-1.01678E+02-1.37056E+00-2.83240E+00 3.96910E+01
 -1        54 4.05231E-13-2.48246E-12 6.95000E-13-2.84850E-12 7.02504E+00-4.36080E+01
 -1        55-7.75293E+00-7.74052E+00 2.73556E+01 6.57606E-01-5.24050E+00 5.21880E+01
 -1        56-1.44879E+01-1.31959E+01 4.76254E+01 2.14768E+00 2.17279E-01-5.69275E+01
 -1        57-9.02444E+00-8.36411E+00 3.13843E+01-2.65890E-02-3.55558E+01 5.10888E+01
 -1        58-7.01533E+00-7.08192E+00 2.53760E+01 2.01756E-02-2.31817E+01 6.50734E+01
 -1        59 1.16431E-11 2.07422E-11-2.20687E-12 4.59301E-12-2.94312E+01 1.82695E+02
 -1        60 1.34742E+00 1.45379E+00-5.05587E+00 1.65052E-01-8.23017E+00 2.20713E+02
 -1        61 5.07017E+01 5.64076E+01-1.85349E+02-2.65237E-01-1.88767E+01 2.36326E+00
 -1        62-8.17643E+00-7.82074E+00 2.90453E+01-1.84130E-01-3.53702E+01 4.93863E+01
 -1        63 3.79413E+01 4.90260E+01-1.51423E+02 1.79367E+00-1.20429E+01 1.46923E+01
 -1        64-4.00922E+00-4.02777E+00 1.43167E+01 1.26156E-02-3.12581E+01 1.20645E+02
 -1        65-2.22873E+00-2.63856E+00 8.40343E+00 9.45669E-02-1.04682E+01 1.47369E+02
 -1        66 6.09923E-12 7.67947E-12 6.11608E-13 4.24105E-13-1.45048E+01 9.00385E+01
 -1        67 6.48855E-01 6.45866E-01-2.30635E+00-7.83114E-02-1.94353E+01 1.94035E+02
 -1        68-9.08700E+00-8.16781E+00 2.98589E+01 1.64646E+00-3.80709E-01 1.17177E+02
 -1        69-1.09240E+02-1.00892E+02 3.73133E+02-4.01293E-01-2.87822E+00 4.08336E+00
 -1        70-8.55932E+01-8.50516E+01 3.02569E+02 5.20107E-01-1.90160E+00 5.22630E+00
 -1        71-1.40705E-11 1.34720E-12 3.79000E-12-1.26499E-12-2.37801E+00 1.47615E+01
 -1        72 1.62533E+01 1.75980E+01-6.01100E+01 2.49103E+00-6.57810E-01 1.78666E+01
 -1        73-6.11666E+01-6.80154E+01 2.23674E+02 3.17669E-01-1.61004E+01 1.96114E+00
 -1        74-9.93554E+01-9.41423E+01 3.45138E+02-2.21081E+00-2.89839E+00 3.93744E+00
 -1        75-4.55170E+01-5.92334E+01 1.82509E+02-2.21924E+00-1.02934E+01 1.25210E+01
 -1        76-4.85273E+01-4.85635E+01 1.71895E+02 1.03567E-01-2.52748E+00 9.73286E+00
 -1        77-2.74226E+01-3.15807E+01 1.02385E+02 1.56738E+00-8.38801E-01 1.19151E+01
 -1        78 2.82441E-13 6.52389E-12 9.47686E-13 2.08406E-12-1.23629E+01 7.67428E+01
 -1        79 7.82335E+00 7.81751E+00-2.76915E+01-6.42892E-01-1.56792E+00 1.56893E+01
 -1        80 1.09570E+01 9.85364E+00-3.60329E+01-1.97194E+00-3.15930E-01 9.99434E+01
 -1        81-2.63815E+01-2.39560E+01 9.05706E+01-1.08261E-01 3.53355E+01-5.06964E+01
 -1        82-2.04035E+01-2.02509E+01 7.31244E+01 1.25716E-01 2.29161E+01-6.45520E+01
 -1        83 7.95947E-12-5.79228E-12 1.38195E-12 1.73186E-12 2.92615E+01-1.81641E+02
 -1        84 3.85920E+00 4.24994E+00-1.45905E+01 6.72030E-01 8.16695E+00-2.19345E+02
 -1        85-7.01796E+01-7.80302E+01 2.56688E+02 3.63446E-01 1.35488E+01-1.66477E+00
 -1        86-2.39193E+01-2.24344E+01 8.38869E+01-6.21031E-01 3.50358E+01-4.89855E+01
 -1        87-5.20811E+01-6.80001E+01 2.09331E+02-2.57258E+00 8.50741E+00-1.03905E+01
 -1        88-1.14468E+01-1.14580E+01 4.10786E+01 3.27630E-02 3.10691E+01-1.19924E+02
 -1        89-6.22147E+00-7.40915E+00 2.38996E+01 4.10698E-01 1.03566E+01-1.46416E+02
 -1        90-5.41567E-13-6.16940E-12 2.82352E-12 1.59206E-13 1.04245E+01-6.47104E+01
 -1        91 1.84584E+00 1.84402E+00-6.61757E+00-2.03377E-01 1.93192E+01-1.92862E+02
 -1        92 1.25703E+01 1.13056E+01-4.13511E+01-2.25609E+00 2.68187E-01-8.41046E+01
 -1        93 1.08017E+02 1.00476E+02-3.64377E+02 3.98709E-01 1.76393E+01-2.60805E+01
 -1        94 8.56545E+01 8.41726E+01-2.96485E+02-5.94488E-01 1.14139E+01-3.30156E+01
 -1        95-6.38001E-12 3.94901E-12 3.02702E-13-2.60986E-12 1.46677E+01-9.10496E+01
 -1        96-1.61861E+01-1.74010E+01 5.86993E+01-2.47499E+00 4.20144E+00-1.09496E+02
 -1        97 4.17564E+01 4.58187E+01-1.50122E+02-1.67500E-01 2.20439E+01-2.93750E+00
 -1        98 9.85064E+01 9.33173E+01-3.36256E+02 1.90911E+00 1.71862E+01-2.54004E+01
 -1        99 3.18876E+01 3.94425E+01-1.23264E+02 1.20161E+00 1.38339E+01-1.71147E+01
 -1       100 4.87528E+01 4.86003E+01-1.70626E+02-6.47480E-02 1.55489E+01-6.03975E+01
 -1       101 2.85879E+01 3.15217E+01-1.03997E+02-1.59144E+00 5.42384E+00-7.34281E+01
 -1       102 7.35079E-13 1.39877E-12 8.75744E-13-2.01403E-12 1.69840E+01-1.05428E+02
 -1       103-7.82928E+00-7.85384E+00 2.74871E+01 4.01923E-01 9.72975E+00-9.65199E+01
 -1       104-7.38117E+00-6.72676E+00 2.41840E+01 1.03976E+00 4.73217E-01-1.36837E+02
 -1       105 8.40974E+01 8.22171E+01-2.84048E+02 1.43988E-01-2.12836E+01 3.13525E+01
 -1       106 6.91547E+01 6.84635E+01-2.35425E+02-5.93512E-01-1.52556E+01 4.08066E+01
 -1       107 2.23104E-11 8.63846E-12-1.42138E-12-1.68375E-11-1.75039E+01 1.08656E+02
 -1       108-1.32448E+01-1.35477E+01 4.57588E+01-8.93805E-01-5.05074E+00 1.32118E+02
 -1       109 9.84482E+01 1.08161E+02-3.54662E+02-4.49770E-01-1.80871E+00 5.78027E-01
 -1       110 7.71407E+01 7.56373E+01-2.62787E+02 4.24455E-01-2.18873E+01 3.11435E+01
 -1       111 7.59841E+01 9.29256E+01-2.91370E+02 2.69866E+00-2.76188E+00 3.37081E+00
 -1       112 4.05053E+01 4.06955E+01-1.36595E+02-9.95942E-03-1.86855E+01 7.20731E+01
 -1       113 2.61299E+01 2.69727E+01-8.75763E+01-7.74279E-01-7.17199E+00 8.89387E+01
 -1       114 4.62030E-12 7.30027E-12 8.56648E-13-9.23711E-12-1.24947E+00 7.75610E+00
 -1       115-6.55585E+00-6.52522E+00 2.20048E+01 6.18232E-02-1.16106E+01 1.15990E+02
 -1       116-1.74243E+01-1.58595E+01 5.71344E+01 2.79195E+00-9.31174E-02 1.12276E+01
 -1       117 2.06885E-01 4.67923E+00 1.11906E+01 5.14665E-01-1.03750E+01 1.94592E+01
 -1       118 5.13400E+00-3.55540E+00 8.36406E+00-4.16531E-01-6.61492E+00 2.33188E+01
 -1       119 7.13030E-12-4.36506E-11 5.97891E-12 1.72118E-11-8.25057E+00 5.12155E+01
 -1       120-7.53801E-01-3.33282E-02-1.80276E+00-3.19479E+00-3.13479E+00 6.44032E+01
 -1       121 3.63210E+01 3.80596E+01-1.15483E+02 3.52029E-01-1.21672E+01-1.21145E+00
 -1       122 2.70739E+00-6.27316E-01 1.15511E+01-1.34456E+00-9.98872E+00 1.64957E+01
 -1       123 3.18266E+01 2.80620E+01-9.61713E+01-7.71983E-01-7.36613E+00 6.68057E+00
 -1       124 7.07351E+00 2.00810E+00 7.47230E-01 5.91930E-01-8.57976E+00 3.84952E+01
 -1       125 9.58252E+00-2.12323E+00-2.40121E+00-1.80224E+00-2.71348E+00 4.70300E+01
 -1       126 1.58556E-11-2.81837E-11-1.10967E-13 2.24612E-12-8.98164E+00 5.57536E+01
 -1       127-3.23495E-01-1.13951E+00-1.20375E-01-3.67441E+00-6.20139E+00 5.32589E+01
 -1       128-6.13122E+00-5.85114E+00 1.86037E+01-2.18522E+00 1.95159E-01 7.55280E+01
 -1       129 3.53418E-06-2.46845E-06 3.79712E+02 6.19799E-06-7.64860E+01 1.93173E+02
 -1       130-9.60216E-06-2.15459E-06 3.31674E+02 1.79592E-06-2.67106E+01 2.03741E+02
 -1       131 4.35515E+01 5.29740E+01-1.74917E+02-1.31206E+00-3.58146E+01 1.79602E+01
 -1       132 5.15234E+01 5.86870E+01-2.00893E+02-9.44751E+00 1.79177E+01 3.25585E+01
 -1       133-2.39197E-04-3.30664E-04 1.95827E+02 1.40242E-04-5.45505E+01 1.80304E+02
 -1       134-1.80667E-04-2.99963E-04 1.47554E+02 1.19331E-05-2.77610E+01 1.92939E+02
 -1       135 3.09822E+01 2.63360E+01-8.33220E+01-3.47109E-01-3.16727E+01 1.01794E+02
 -1       136 3.86631E+01 3.27200E+01-1.09655E+02-8.42722E+00 5.01468E+00 1.28269E+02
 -1       137-2.45860E-04-4.66848E-04 3.56589E+02 8.92985E-05-5.16917E+01 1.97585E+02
 -1       138-9.16748E+00-3.31765E+01 1.10701E+02 2.52541E+00-2.48631E+01 5.84956E+01
 -1       139 4.76343E+01 5.72229E+01-1.88369E+02-3.38595E+00-4.60132E+00 1.98670E+01
 -1       140-1.12701E+01-3.47373E+01 1.19065E+02 1.61613E+01-8.63107E+00 6.07971E+01
 -1       141 8.95894E+01 7.63217E+01-2.87167E+02 8.05894E-01 1.84562E+01-2.42665E+01
 -1       142 9.48105E+01 9.06370E+01-3.22343E+02 1.97168E+00-1.34014E+00-2.94972E+01
 -1       143 3.66212E+01 3.58107E+01-1.27992E+02 2.06392E-02 1.62415E+01-6.07402E+01
 -1       144 4.46667E+01 5.05018E+01-1.66253E+02 2.59878E+00 2.70323E+00-7.27485E+01
 -1       145 6.25857E+01 8.44217E+01-2.77842E+02-1.05632E+00-6.77972E+00-6.33125E+00
 -1       146 9.37905E+01 8.20499E+01-3.05832E+02-1.92683E+00 5.28853E+00-2.33201E+01
 -1       147 6.95575E+01 9.33412E+01-3.09280E+02-7.89581E+00 1.68900E+00-3.68289E+00
 -1       148-5.12969E+01-4.64037E+01 1.69094E+02-2.97910E-01 3.13640E+01-4.55002E+01
 -1       149-5.54137E+01-5.43446E+01 1.90410E+02-7.68758E-01-2.79117E+00-5.42940E+01
 -1       150-2.23151E+01-2.22050E+01 7.84369E+01 9.00596E-03 2.75687E+01-1.06860E+02
 -1       151-2.76038E+01-3.04446E+01 1.01601E+02-9.54016E-01 4.68388E+00-1.27083E+02
 -1       152 2.02387E+01 1.98331E+01-6.59144E+01 5.86927E-02 2.10934E+01-9.28281E-01
 -1       153-5.40470E+01-4.97568E+01 1.80398E+02 7.70962E-01 1.01256E+01-4.32281E+01
 -1       154 2.10227E+01 2.31071E+01-7.36035E+01-4.84889E-01-9.10206E+00-1.13985E+01
 -1       155-1.07249E+02-9.97077E+01 3.67228E+02-3.53515E-01-9.55854E+00 1.37593E+01
 -1       156-1.16527E+02-1.16346E+02 4.12457E+02-6.19097E-01 8.16785E-01 1.64147E+01
 -1       157-4.80494E+01-4.81264E+01 1.69810E+02 1.05937E-01-8.40724E+00 3.25304E+01
 -1       158-5.96275E+01-6.53260E+01 2.19387E+02-7.72637E-01-1.41547E+00 3.86708E+01
 -1       159-8.19139E+01-8.99337E+01 2.95635E+02 3.45981E-01 9.17075E+00-1.34876E+00
 -1       160-1.13111E+02-1.06956E+02 3.91201E+02 1.68318E+00-3.14538E+00 1.30702E+01
 -1       161-9.05314E+01-1.02520E+02 3.34393E+02 3.68352E+00-3.91259E+00-5.85401E+00
 -1       162 9.02444E+00 8.36411E+00-3.13843E+01 2.65890E-02-3.55558E+01 5.10888E+01
 -1       163 9.73167E+00 9.77978E+00-3.51220E+01 2.79242E-02 2.89236E+00 6.08730E+01
 -1       164 4.00922E+00 4.02777E+00-1.43167E+01-1.26156E-02-3.12581E+01 1.20645E+02
 -1       165 4.93439E+00 5.48372E+00-1.84587E+01 3.87005E-02-5.30974E+00 1.43522E+02
 -1       166-5.07017E+01-5.64076E+01 1.85349E+02 2.65237E-01-1.88767E+01 2.36326E+00
 -1       167 9.48489E+00 8.97469E+00-3.33727E+01-1.62661E-01-1.14909E+01 4.85553E+01
 -1       168-5.61796E+01-6.41884E+01 2.09579E+02 2.48255E+00 7.82481E+00 1.14917E+01
 -1       169 1.09240E+02 1.00892E+02-3.73133E+02 4.01293E-01-2.87822E+00 4.08336E+00
 -1       170 1.18287E+02 1.17896E+02-4.18774E+02 7.19860E-01 2.74197E-01 4.87579E+00
 -1       171 4.85273E+01 4.85635E+01-1.71895E+02-1.03567E-01-2.52748E+00 9.73286E+00
 -1       172 6.00237E+01 6.61277E+01-2.22003E+02 9.19620E-01-4.18908E-01 1.15913E+01
 -1       173 6.11666E+01 6.80154E+01-2.23674E+02-3.17669E-01-1.61004E+01 1.96114E+00
 -1       174 1.15096E+02 1.08229E+02-3.97395E+02-1.81016E+00-8.88390E-01 3.86980E+00
 -1       175 6.75353E+01 7.74456E+01-2.52604E+02-3.07156E+00 6.70029E+00 9.78343E+00
 -1       176 2.63815E+01 2.39560E+01-9.05706E+01 1.08261E-01 3.53355E+01-5.06964E+01
 -1       177 2.81893E+01 2.80790E+01-1.01209E+02 1.73998E-01-2.78504E+00-6.04117E+01
 -1       178 1.14468E+01 1.14580E+01-4.10786E+01-3.27630E-02 3.10691E+01-1.19924E+02
 -1       179 1.39737E+01 1.57159E+01-5.29208E+01 2.27161E-01 5.29467E+00-1.42629E+02
 -1       180 7.01796E+01 7.80302E+01-2.56688E+02-3.63446E-01 1.35488E+01-1.66477E+00
 -1       181 2.76446E+01 2.56878E+01-9.62623E+01-5.18275E-01 1.15280E+01-4.81700E+01
 -1       182 7.73490E+01 8.88507E+01-2.89726E+02-3.56061E+00-5.52384E+00-8.13011E+00
 -1       183-1.08017E+02-1.00476E+02 3.64377E+02-3.98709E-01 1.76393E+01-2.60805E+01
 -1       184-1.18061E+02-1.16990E+02 4.10353E+02-8.22808E-01-1.10142E+00-3.09994E+01
 -1       185-4.87528E+01-4.86003E+01 1.70626E+02 6.47480E-02 1.55489E+01-6.03975E+01
 -1       186-6.09782E+01-6.57848E+01 2.20763E+02-1.04476E+00 2.68896E+00-7.16561E+01
 -1       187-4.17564E+01-4.58187E+01 1.50122E+02 1.67500E-01 2.20439E+01-2.93750E+00
 -1       188-1.14182E+02-1.07746E+02 3.88574E+02 1.48442E+00 6.18619E+00-2.49599E+01
 -1       189-4.66334E+01-5.20918E+01 1.70605E+02 1.66310E+00-8.90998E+00-1.34507E+01
 -1       190-8.40974E+01-8.22171E+01 2.84048E+02-1.43988E-01-2.12836E+01 3.13525E+01
 -1       191-9.54857E+01-9.49863E+01 3.25842E+02-8.21457E-01 2.57068E+00 3.79349E+01
 -1       192-4.05053E+01-4.06955E+01 1.36595E+02 9.95942E-03-1.86855E+01 7.20731E+01
 -1       193-5.25412E+01-5.39261E+01 1.79166E+02-6.75139E-01-2.74732E+00 8.64381E+01
 -1       194-9.84482E+01-1.08161E+02 3.54662E+02 4.49770E-01-1.80871E+00 5.78027E-01
 -1       195-9.01731E+01-8.83109E+01 3.05758E+02 1.90960E-01-6.36506E+00 3.04307E+01
 -1       196-1.10770E+02-1.23011E+02 4.03274E+02 3.73511E+00 1.79408E+00 2.63686E+00
 -1       197-2.06885E-01-4.67923E+00-1.11906E+01-5.14665E-01-1.03750E+01 1.94592E+01
 -1       198-4.23153E+00 2.04666E+00-1.15764E+01-5.76504E-01-7.45867E-01 2.23733E+01
 -1       199-7.07351E+00-2.00810E+00-7.47230E-01-5.91930E-01-8.57976E+00 3.84952E+01
 -1       200-9.88564E+00 1.34084E+00-1.29167E+00-2.34302E+00-2.59827E+00 4.62320E+01
 -1       201-3.63210E+01-3.80596E+01 1.15483E+02-3.52029E-01-1.21672E+01-1.21145E+00
 -1       202-2.14934E+00-2.50891E+00-1.13724E+01-2.01235E+00-5.03535E+00 1.64771E+01
 -1       203-4.28047E+01-4.00847E+01 1.33107E+02-1.06847E+00 5.54888E+00 4.60002E+00
 -1       204-3.53418E-06 2.46845E-06-3.79712E+02-6.19799E-06-7.64860E+01 1.93173E+02
 -1       205-5.15234E+01-5.86870E+01 2.00893E+02 9.44751E+00 1.79177E+01 3.25585E+01
 -1       206 3.47094E-07 1.54686E-06-5.34311E+01-1.11482E-05-3.28217E+01 1.65806E+02
 -1       207-8.53387E+00-7.01593E+00 2.81783E+01 8.14464E+00-2.89330E+00 2.22320E+02
 -1       208 2.45860E-04 4.66848E-04-3.56589E+02-8.92985E-05-5.16917E+01 1.97585E+02
 -1       209 1.12701E+01 3.47373E+01-1.19065E+02-1.61613E+01-8.63107E+00 6.07971E+01
 -1       210-4.76343E+01-5.72229E+01 1.88369E+02 3.38595E+00-4.60132E+00 1.98670E+01
 -1       211 2.39197E-04 3.30664E-04-1.95827E+02-1.40242E-04-5.45505E+01 1.80304E+02
 -1       212-3.86631E+01-3.27200E+01 1.09655E+02 8.42722E+00 5.01468E+00 1.28269E+02
 -1       213 4.83227E-05 2.91046E-05-2.37702E+01-7.40748E-05-3.10815E+01 1.72327E+02
 -1       214 5.34458E+00 1.47684E+00-1.78334E+01-1.56765E+01-9.42337E+00 1.54338E+02
 -1       215-4.24261E+00-4.99108E+00 1.34228E+01 2.15468E+00-1.63985E+01 1.96608E+02
 -1       216-9.48105E+01-9.06370E+01 3.22343E+02-1.97168E+00-1.34014E+00-2.94972E+01
 -1       217-1.22951E+01-1.44324E+01 4.62612E+01-5.00259E+00 3.90922E+00-1.14567E+02
 -1       218-6.95575E+01-9.33412E+01 3.09280E+02 7.89581E+00 1.68900E+00-3.68289E+00
 -1       219-9.37905E+01-8.20499E+01 3.05832E+02 1.92683E+00 5.28853E+00-2.33201E+01
 -1       220-4.46667E+01-5.05018E+01 1.66253E+02-2.59878E+00 2.70323E+00-7.27485E+01
 -1       221-1.35999E+01-1.00823E+01 4.47590E+01 6.55709E+00 1.01993E+00 4.20851E+01
 -1       222-5.76894E+00-5.89950E+00 2.06189E+01-1.28118E-01 9.78495E+00-1.00819E+02
 -1       223 5.54137E+01 5.43446E+01-1.90410E+02 7.68758E-01-2.79117E+00-5.42940E+01
 -1       224 7.47541E+00 8.26369E+00-2.72403E+01 1.84928E+00 7.32987E+00-1.94692E+02
 -1       225-2.10227E+01-2.31071E+01 7.36035E+01 4.84889E-01-9.10206E+00-1.13985E+01
 -1       226 5.40470E+01 4.97568E+01-1.80398E+02-7.70962E-01 1.01256E+01-4.32281E+01
 -1       227 2.76038E+01 3.04446E+01-1.01601E+02 9.54016E-01 4.68388E+00-1.27083E+02
 -1       228-3.19501E+00-3.26037E+00 1.06185E+01-3.64335E-01 1.49542E-01-1.30937E+02
 -1       229 3.57712E+00 3.59485E+00-1.26358E+01-5.59046E-02 1.72147E+01-1.71133E+02
 -1       230 1.16527E+02 1.16346E+02-4.12457E+02 6.19097E-01 8.16785E-01 1.64147E+01
 -1       231 1.60624E+01 1.72773E+01-5.91587E+01 2.19444E+00-2.21656E+00 5.93347E+01
 -1       232 9.05314E+01 1.02520E+02-3.34393E+02-3.68352E+00-3.91259E+00-5.85401E+00
 -1       233 1.13111E+02 1.06956E+02-3.91201E+02-1.68318E+00-3.14538E+00 1.30702E+01
 -1       234 5.96275E+01 6.53260E+01-2.19387E+02 7.72637E-01-1.41547E+00 3.86708E+01
 -1       235 1.44879E+01 1.31959E+01-4.76254E+01-2.14768E+00 2.17279E-01-5.69275E+01
 -1       236 7.75293E+00 7.74052E+00-2.73556E+01-6.57606E-01-5.24050E+00 5.21880E+01
 -1       237-9.73167E+00-9.77978E+00 3.51220E+01-2.79242E-02 2.89236E+00 6.08730E+01
 -1       238-1.34742E+00-1.45379E+00 5.05587E+00-1.65052E-01-8.23017E+00 2.20713E+02
 -1       239 5.61796E+01 6.41884E+01-2.09579E+02-2.48255E+00 7.82481E+00 1.14917E+01
 -1       240-9.48489E+00-8.97469E+00 3.33727E+01 1.62661E-01-1.14909E+01 4.85553E+01
 -1       241-4.93439E+00-5.48372E+00 1.84587E+01-3.87005E-02-5.30974E+00 1.43522E+02
 -1       242 9.08700E+00 8.16781E+00-2.98589E+01-1.64646E+00-3.80709E-01 1.17177E+02
 -1       243-6.48855E-01-6.45866E-01 2.30635E+00 7.83114E-02-1.94353E+01 1.94035E+02
 -1       244-1.18287E+02-1.17896E+02 4.18774E+02-7.19860E-01 2.74197E-01 4.87579E+00
 -1       245-1.62533E+01-1.75980E+01 6.01100E+01-2.49103E+00-6.57810E-01 1.78666E+01
 -1       246-6.75353E+01-7.74456E+01 2.52604E+02 3.07156E+00 6.70029E+00 9.78343E+00
 -1       247-1.15096E+02-1.08229E+02 3.97395E+02 1.81016E+00-8.88390E-01 3.86980E+00
 -1       248-6.00237E+01-6.61277E+01 2.22003E+02-9.19620E-01-4.18908E-01 1.15913E+01
 -1       249-1.09570E+01-9.85364E+00 3.60329E+01 1.97194E+00-3.15930E-01 9.99434E+01
 -1       250-7.82335E+00-7.81751E+00 2.76915E+01 6.42892E-01-1.56792E+00 1.56893E+01
 -1       251-2.81893E+01-2.80790E+01 1.01209E+02-1.73998E-01-2.78504E+00-6.04117E+01
 -1       252-3.85920E+00-4.24994E+00 1.45905E+01-6.72030E-01 8.16695E+00-2.19345E+02
 -1       253-7.73490E+01-8.88507E+01 2.89726E+02 3.56061E+00-5.52384E+00-8.13011E+00
 -1       254-2.76446E+01-2.56878E+01 9.62623E+01 5.18275E-01 1.15280E+01-4.81700E+01
 -1       255-1.39737E+01-1.57159E+01 5.29208E+01-2.27161E-01 5.29467E+00-1.42629E+02
 -1       256-1.25703E+01-1.13056E+01 4.13511E+01 2.25609E+00 2.68187E-01-8.41046E+01
 -1       257-1.84584E+00-1.84402E+00 6.61757E+00 2.03377E-01 1.93192E+01-1.92862E+02
 -1       258 1.18061E+02 1.16990E+02-4.10353E+02 8.22808E-01-1.10142E+00-3.09994E+01
 -1       259 1.61861E+01 1.74010E+01-5.86993E+01 2.47499E+00 4.20144E+00-1.09496E+02
 -1       260 4.66334E+01 5.20918E+01-1.70605E+02-1.66310E+00-8.90998E+00-1.34507E+01
 -1       261 1.14182E+02 1.07746E+02-3.88574E+02-1.48442E+00 6.18619E+00-2.49599E+01
 -1       262 6.09782E+01 6.57848E+01-2.20763E+02 1.04476E+00 2.68896E+00-7.16561E+01
 -1       263 7.38117E+00 6.72676E+00-2.41840E+01-1.03976E+00 4.73217E-01-1.36837E+02
 -1       264 7.82928E+00 7.85384E+00-2.74871E+01-4.01923E-01 9.72975E+00-9.65199E+01
 -1       265 9.54857E+01 9.49863E+01-3.25842E+02 8.21457E-01 2.57068E+00 3.79349E+01
 -1       266 1.32448E+01 1.35477E+01-4.57588E+01 8.93805E-01-5.05074E+00 1.32118E+02
 -1       267 1.10770E+02 1.23011E+02-4.03274E+02-3.73511E+00 1.79408E+00 2.63686E+00
 -1       268 9.01731E+01 8.83109E+01-3.05758E+02-1.90960E-01-6.36506E+00 3.04307E+01
 -1       269 5.25412E+01 5.39261E+01-1.79166E+02 6.75139E-01-2.74732E+00 8.64381E+01
 -1       270 1.74243E+01 1.58595E+01-5.71344E+01-2.79195E+00-9.31174E-02 1.12276E+01
 -1       271 6.55585E+00 6.52522E+00-2.20048E+01-6.18232E-02-1.16106E+01 1.15990E+02
 -1       272 4.23153E+00-2.04666E+00 1.15764E+01 5.76504E-01-7.45867E-01 2.23733E+01
 -1       273 7.53801E-01 3.33282E-02 1.80276E+00 3.19479E+00-3.13479E+00 6.44032E+01
 -1       274 4.28047E+01 4.00847E+01-1.33107E+02 1.06847E+00 5.54888E+00 4.60002E+00
 -1       275 2.14934E+00 2.50891E+00 1.13724E+01 2.01235E+00-5.03535E+00 1.64771E+01
 -1       276 9.88564E+00-1.34084E+00 1.29167E+00 2.34302E+00-2.59827E+00 4.62320E+01
 -1       277 6.13122E+00 5.85114E+00-1.86037E+01 2.18522E+00 1.95159E-01 7.55280E+01
 -1       278 3.23495E-01 1.13951E+00 1.20375E-01 3.67441E+00-6.20139E+00 5.32589E+01
 -1       279 4.53900E-06-3.76900E-06 2.74347E+02-4.47812E-06 1.66650E+01 1.78166E+02
 -1       280 3.48567E+01 4.47716E+01-1.45148E+02 6.82594E+00-2.96420E+01 4.02201E+01
 -1       281-9.75210E-05-2.66960E-04 8.83116E+01-1.18177E-04-7.89898E+00 1.72814E+02
 -1       282 2.17955E+01 1.87073E+01-5.31908E+01 7.75629E+00-1.18534E+01 1.33582E+02
 -1       283-1.49586E-04-4.12605E-04 3.10816E+02-4.76684E-05-5.19399E+00 1.90070E+02
 -1       284-3.80451E-01-3.28605E+01 8.60260E+01-1.16767E+01-1.10191E+01 6.11818E+01
 -1       285 3.93495E+01 4.74834E+01-1.62135E+02 7.78863E-01-3.75816E+01 2.25844E+01
 -1       286 6.98822E+01 6.41058E+01-2.32896E+02-1.42456E+00 1.11685E+01-3.15123E+01
 -1       287 1.99068E+01 2.21694E+01-7.39505E+01-3.37461E+00 4.86642E+00-7.48756E+01
 -1       288 4.23891E+01 7.53072E+01-2.23458E+02 5.70482E+00-5.60787E-01-3.32047E+00
 -1       289 8.20835E+01 7.16474E+01-2.67137E+02 2.88912E+00 1.84930E+01-2.36686E+01
 -1       290-4.03907E+01-3.89110E+01 1.37574E+02 5.55436E-01 2.08990E+01-5.81104E+01
 -1       291-1.26164E+01-1.41895E+01 4.73442E+01 1.25987E+00 9.36528E+00-1.30505E+02
 -1       292 1.44997E+01 1.73846E+01-5.31794E+01 3.50338E-01 1.33574E+01-1.50166E+01
 -1       293-4.68567E+01-4.32775E+01 1.56403E+02-1.12761E+00 3.13705E+01-4.39822E+01
 -1       294-8.42522E+01-8.40014E+01 2.98005E+02 4.47305E-01-6.28988E+00 1.75596E+01
 -1       295-2.74266E+01-3.13928E+01 1.01678E+02 1.37056E+00-2.83240E+00 3.96910E+01
 -1       296-6.14444E+01-7.80375E+01 2.41603E+02-2.66139E+00 6.05743E+00-7.46014E+00
 -1       297-9.75298E+01-9.29317E+01 3.39479E+02-2.02844E+00-9.47832E+00 1.32985E+01
 -1       298 7.01533E+00 7.08192E+00-2.53760E+01-2.01756E-02-2.31817E+01 6.50734E+01
 -1       299 2.22873E+00 2.63856E+00-8.40343E+00-9.45669E-02-1.04682E+01 1.47369E+02
 -1       300-3.79413E+01-4.90260E+01 1.51423E+02-1.79367E+00-1.20429E+01 1.46923E+01
 -1       301 8.17643E+00 7.82074E+00-2.90453E+01 1.84130E-01-3.53702E+01 4.93863E+01
 -1       302 8.55932E+01 8.50516E+01-3.02569E+02-5.20107E-01-1.90160E+00 5.22630E+00
 -1       303 2.74226E+01 3.15807E+01-1.02385E+02-1.56738E+00-8.38801E-01 1.19151E+01
 -1       304 4.55170E+01 5.92334E+01-1.82509E+02 2.21924E+00-1.02934E+01 1.25210E+01
 -1       305 9.93554E+01 9.41423E+01-3.45138E+02 2.21081E+00-2.89839E+00 3.93744E+00
 -1       306 2.04035E+01 2.02509E+01-7.31244E+01-1.25716E-01 2.29161E+01-6.45520E+01
 -1       307 6.22147E+00 7.40915E+00-2.38996E+01-4.10698E-01 1.03566E+01-1.46416E+02
 -1       308 5.20811E+01 6.80001E+01-2.09331E+02 2.57258E+00 8.50741E+00-1.03905E+01
 -1       309 2.39193E+01 2.24344E+01-8.38869E+01 6.21031E-01 3.50358E+01-4.89855E+01
 -1       310-8.56545E+01-8.41726E+01 2.96485E+02 5.94488E-01 1.14139E+01-3.30156E+01
 -1       311-2.85879E+01-3.15217E+01 1.03997E+02 1.59144E+00 5.42384E+00-7.34281E+01
 -1       312-3.18876E+01-3.94425E+01 1.23264E+02-1.20161E+00 1.38339E+01-1.71147E+01
 -1       313-9.85064E+01-9.33173E+01 3.36256E+02-1.90911E+00 1.71862E+01-2.54004E+01
 -1       314-6.91547E+01-6.84635E+01 2.35425E+02 5.93512E-01-1.52556E+01 4.08066E+01
 -1       315-2.61299E+01-2.69727E+01 8.75763E+01 7.74279E-01-7.17199E+00 8.89387E+01
 -1       316-7.59841E+01-9.29256E+01 2.91370E+02-2.69866E+00-2.76188E+00 3.37081E+00
 -1       317-7.71407E+01-7.56373E+01 2.62787E+02-4.24455E-01-2.18873E+01 3.11435E+01
 -1       318-5.13400E+00 3.55540E+00-8.36406E+00 4.16531E-01-6.61492E+00 2.33188E+01
 -1       319-9.58252E+00 2.12323E+00 2.40121E+00 1.80224E+00-2.71348E+00 4.70300E+01
 -1       320-3.18266E+01-2.80620E+01 9.61713E+01 7.71983E-01-7.36613E+00 6.68057E+00
 -1       321-2.70739E+00 6.27316E-01-1.15511E+01 1.34456E+00-9.98872E+00 1.64957E+01
 -3
    1PSTEP                        52           1           1          
    1PGM                1.000000E+00                                  
    1PGK                5.411283E+10                                  
    1PHID                         -1                                  
    1PSUBC                         0                                  
    1PMODE                        13                                  
  100CL  113 37022.88488         321                     2   13MODAL      1
 -4  ERROR       1    1
 -5  STR(%)      1    1    0    0
 -1         1 1.95875E+01
 -1         2 2.05450E+01
 -1         3 2.05450E+01
 -1         4 1.96185E+01
 -1         5 2.05450E+01
 -1         6 2.05450E+01
 -1         7 2.05450E+01
 -1         8 2.05450E+01
 -1         9 2.00663E+01
 -1        10 2.05450E+01
 -1        11 2.00818E+01
 -1        12 1.96030E+01
 -1        13 2.00663E+01
 -1        14 2.05450E+01
 -1        15 2.05450E+01
 -1        16 2.00818E+01
 -1        17 2.05450E+01
 -1        18 2.05450E+01
 -1        19 2.05450E+01
 -1        20 2.05450E+01
 -1        21 1.96185E+01
 -1        22 1.96185E+01
 -1        23 1.96185E+01
 -1        24 1.96185E+01
 -1        25 2.00818E+01
 -1        26 1.96185E+01
 -1        27 1.96185E+01
 -1        28 1.96185E+01
 -1        29 1.96185E+01
 -1        30 2.00818E+01
 -1        31 1.96185E+01
 -1        32 2.00818E+01
 -1        33 2.09212E+01
 -1        34 2.09212E+01
 -1        35 2.09212E+01
 -1        36 2.09212E+01
 -1        37 2.02698E+01
 -1        38 2.09212E+01
 -1        39 2.02698E+01
 -1        40 2.09212E+01
 -1        41 2.09212E+01
 -1        42 2.02698E+01
 -1        43 2.09212E+01
 -1        44 2.02698E+01
 -1        45 2.09212E+01
 -1        46 2.09212E+01
 -1        47 2.09212E+01
 -1        48 2.09212E+01
 -1        49 2.09212E+01
 -1        50 2.09212E+01
 -1        51 2.09212E+01
 -1        52 2.09212E+01
 -1        53 2.09212E+01
 -1        54 2.09212E+01
 -1        55 2.09212E+01
 -1        56 2.09212E+01
 -1        57 1.80719E+01
 -1        58 1.80719E+01
 -1        59 1.80719E+01
 -1        60 1.80719E+01
 -1        61 1.94965E+01
 -1        62 1.80719E+01
 -1        63 1.94965E+01
 -1        64 1.80719E+01
 -1        65 1.80719E+01
 -1        66 1.94965E+01
 -1        67 1.80719E+01
 -1        68 1.94965E+01
 -1        69 2.00426E+01
 -1        70 2.00426E+01
 -1        71 2.00426E+01
 -1        72 2.00426E+01
 -1        73 1.90573E+01
 -1        74 2.00426E+01
 -1        75 1.90573E+01
 -1        76 2.00426E+01
 -1        77 2.00426E+01
 -1        78 1.90573E+01
 -1        79 2.00426E+01
 -1        80 1.90573E+01
 -1        81 2.00426E+01
 -1        82 2.00426E+01
 -1        83 2.00426E+01
 -1        84 2.00426E+01
 -1        85 2.00426E+01
 -1        86 2.00426E+01
 -1        87 2.00426E+01
 -1        88 2.00426E+01
 -1        89 2.00426E+01
 -1        90 2.00426E+01
 -1        91 2.00426E+01
 -1        92 2.00426E+01
 -1        93 2.12721E+01
 -1        94 2.12721E+01
 -1        95 2.12721E+01
 -1        96 2.12721E+01
 -1        97 2.06574E+01
 -1        98 2.12721E+01
 -1        99 2.06574E+01
 -1       100 2.12721E+01
 -1       101 2.12721E+01
 -1       102 2.06574E+01
 -1       103 2.12721E+01
 -1       104 2.06574E+01
 -1       105 2.12721E+01
 -1       106 2.12721E+01
 -1       107 2.12721E+01
 -1       108 2.12721E+01
 -1       109 2.12721E+01
 -1       110 2.12721E+01
 -1       111 2.12721E+01
 -1       112 2.12721E+01
 -1       113 2.12721E+01
 -1       114 2.12721E+01
 -1       115 2.12721E+01
 -1       116 2.12721E+01
 -1       117 1.95089E+01
 -1       118 1.92848E+01
 -1       119 1.95089E+01
 -1       120 1.95089E+01
 -1       121 2.03905E+01
 -1       122 1.93969E+01
 -1       123 2.02784E+01
 -1       124 1.95089E+01
 -1       125 1.93969E+01
 -1       126 2.03905E+01
 -1       127 1.95089E+01
 -1       128 2.03905E+01
 -1       129 2.05450E+01
 -1       130 2.05450E+01
 -1       131 2.05450E+01
 -1       132 2.05450E+01
 -1       133 2.05450E+01
 -1       134 2.05450E+01
 -1       135 2.05450E+01
 -1       136 2.05450E+01
 -1       137 2.05450E+01
 -1       138 2.05450E+01
 -1       139 2.05450E+01
 -1       140 2.05450E+01
 -1       141 1.96185E+01
 -1       142 1.83901E+01
 -1       143 1.96185E+01
 -1       144 1.90043E+01
 -1       145 2.00818E+01
 -1       146 1.90043E+01
 -1       147 1.94676E+01
 -1       148 2.09212E+01
 -1       149 1.84762E+01
 -1       150 2.09212E+01
 -1       151 1.96987E+01
 -1       152 2.02698E+01
 -1       153 1.96987E+01
 -1       154 1.84332E+01
 -1       155 2.09212E+01
 -1       156 1.84762E+01
 -1       157 2.09212E+01
 -1       158 1.96987E+01
 -1       159 2.09212E+01
 -1       160 1.96987E+01
 -1       161 1.84762E+01
 -1       162 1.80719E+01
 -1       163 1.65781E+01
 -1       164 1.80719E+01
 -1       165 1.73250E+01
 -1       166 1.94965E+01
 -1       167 1.73250E+01
 -1       168 1.75272E+01
 -1       169 2.00426E+01
 -1       170 1.79241E+01
 -1       171 2.00426E+01
 -1       172 1.89834E+01
 -1       173 1.90573E+01
 -1       174 1.89834E+01
 -1       175 1.72511E+01
 -1       176 2.00426E+01
 -1       177 1.79241E+01
 -1       178 2.00426E+01
 -1       179 1.89834E+01
 -1       180 2.00426E+01
 -1       181 1.89834E+01
 -1       182 1.79241E+01
 -1       183 2.12721E+01
 -1       184 1.89195E+01
 -1       185 2.12721E+01
 -1       186 2.00958E+01
 -1       187 2.06574E+01
 -1       188 2.00958E+01
 -1       189 1.84218E+01
 -1       190 2.12721E+01
 -1       191 1.95089E+01
 -1       192 2.12721E+01
 -1       193 2.03905E+01
 -1       194 2.12721E+01
 -1       195 2.03905E+01
 -1       196 1.92142E+01
 -1       197 1.95089E+01
 -1       198 1.95089E+01
 -1       199 1.95089E+01
 -1       200 1.95089E+01
 -1       201 2.03905E+01
 -1       202 1.95089E+01
 -1       203 1.95089E+01
 -1       204 2.05450E+01
 -1       205 2.05450E+01
 -1       206 2.05450E+01
 -1       207 2.05450E+01
 -1       208 2.05450E+01
 -1       209 2.05450E+01
 -1       210 2.05450E+01
 -1       211 2.05450E+01
 -1       212 2.05450E+01
 -1       213 2.05450E+01
 -1       214 2.05450E+01
 -1       215 2.05450E+01
 -1       216 1.83901E+01
 -1       217 1.96185E+01
 -1       218 1.94676E+01
 -1       219 1.90043E+01
 -1       220 1.90043E+01
 -1       221 2.00818E+01
 -1       222 1.96185E+01
 -1       223 1.84762E+01
 -1       224 2.09212E+01
 -1       225 1.84332E+01
 -1       226 1.96987E+01
 -1       227 1.96987E+01
 -1       228 2.02698E+01
 -1       229 2.09212E+01
 -1       230 1.84762E+01
 -1       231 2.09212E+01
 -1       232 1.84762E+01
 -1       233 1.96987E+01
 -1       234 1.96987E+01
 -1       235 2.09212E+01
 -1       236 2.09212E+01
 -1       237 1.65781E+01
 -1       238 1.80719E+01
 -1       239 1.75272E+01
 -1       240 1.73250E+01
 -1       241 1.73250E+01
 -1       242 1.94965E+01
 -1       243 1.80719E+01
 -1       244 1.79241E+01
 -1       245 2.00426E+01
 -1       246 1.72511E+01
 -1       247 1.89834E+01
 -1       248 1.89834E+01
 -1       249 1.90573E+01
 -1       250 2.00426E+01
 -1       251 1.79241E+01
 -1       252 2.00426E+01
 -1       253 1.79241E+01
 -1       254 1.89834E+01
 -1       255 1.89834E+01
 -1       256 2.00426E+01
 -1       257 2.00426E+01
 -1       258 1.89195E+01
 -1       259 2.12721E+01
 -1       260 1.84218E+01
 -1       261 2.00958E+01
 -1       262 2.00958E+01
 -1       263 2.06574E+01
 -1       264 2.12721E+01
 -1       265 1.95089E+01
 -1       266 2.12721E+01
 -1       267 1.92142E+01
 -1       268 2.03905E+01
 -1       269 2.03905E+01
 -1       270 2.12721E+01
 -1       271 2.12721E+01
 -1       272 1.95089E+01
 -1       273 1.95089E+01
 -1       274 1.95089E+01
 -1       275 1.95089E+01
 -1       276 1.95089E+01
 -1       277 2.03905E+01
 -1       278 1.95089E+01
 -1       279 1.95875E+01
 -1       280 1.96185E+01
 -1       281 2.00663E+01
 -1       282 2.00818E+01
 -1       283 2.00663E+01
 -1       284 1.96030E+01
 -1       285 2.00818E+01
 -1       286 1.96185E+01
 -1       287 1.96185E+01
 -1       288 1.96185E+01
 -1       289 1.96185E+01
 -1       290 2.09212E+01
 -1       291 2.09212E+01
 -1       292 2.02698E+01
 -1       293 2.09212E+01
 -1       294 2.09212E+01
 -1       295 2.09212E+01
 -1       296 2.09212E+01
 -1       297 2.09212E+01
 -1       298 1.80719E+01
 -1       299 1.80719E+01
 -1       300 1.94965E+01
 -1       301 1.80719E+01
 -1       302 2.00426E+01
 -1       303 2.00426E+01
 -1       304 1.90573E+01
 -1       305 2.00426E+01
 -1       306 2.00426E+01
 -1       307 2.00426E+01
 -1       308 2.00426E+01
 -1       309 2.00426E+01
 -1       310 2.12721E+01
 -1       311 2.12721E+01
 -1       312 2.06574E+01
 -1       313 2.12721E+01
 -1       314 2.12721E+01
 -1       315 2.12721E+01
 -1       316 2.12721E+01
 -1       317 2.12721E+01
 -1       318 1.92848E+01
 -1       319 1.93969E+01
 -1       320 2.02784E+01
 -1       321 1.93969E+01
 -3
    1PSTEP                        53           1           1          
    1PGM                1.000000E+00                                  
    1PGK                5.493188E+10                                  
    1PHID                         -1                                  
    1PSUBC                         0                                  
    1PMODE                        14                                  
  100CL  114 37302.02027         321                     2   14MODAL      1
 -4  DISP        4    1
 -5  D1          1    2    1    0
 -5  D2          1    2    2    0
 -5  D3          1    2    3    0
 -5  ALL         1    2    0    0    1ALL
 -1         1 0.00000E+00 0.00000E+00 0.00000E+00
 -1         2 0.00000E+00 0.00000E+00 0.00000E+00
 -1         3-9.89653E-13-4.16975E+00 3.31513E-13
 -1         4 4.17105E+00-4.17105E+00 1.62093E-14
 -1         5 0.00000E+00 0.00000E+00 0.00000E+00
 -1         6 0.00000E+00 0.00000E+00 0.00000E+00
 -1         7-1.01452E-12 1.19371E-12 7.32747E-14
 -1         8 4.16975E+00 1.14220E-12-2.40807E-13
 -1         9 0.00000E+00 0.00000E+00 0.00000E+00
 -1        10-4.92051E-13-2.17629E+00 2.93321E-13
 -1        11 2.08893E+00-4.16925E+00-3.51284E-01
 -1        12 2.10256E+00-2.10256E+00-9.99201E-15
 -1        13 0.00000E+00 0.00000E+00 0.00000E+00
 -1        14 0.00000E+00 0.00000E+00 0.00000E+00
 -1        15-1.00475E-12-2.08283E+00 1.54987E-13
 -1        16 4.16925E+00-2.08893E+00 3.51284E-01
 -1        17 0.00000E+00 0.00000E+00 0.00000E+00
 -1        18-4.61409E-13 5.54667E-13 2.97540E-14
 -1        19 2.08283E+00 1.17151E-12-2.96568E-14
 -1        20 2.17629E+00 5.65770E-13-2.75113E-13
 -1        21-9.61564E-13-6.17606E+00-2.57350E-13
 -1        22 6.23947E+00-6.23947E+00 1.74083E-13
 -1        23-1.00153E-12 1.23634E-12 1.37224E-13
 -1        24 6.17606E+00 1.18083E-12 5.63993E-13
 -1        25-1.21059E-12-5.61123E+00 6.03961E-14
 -1        26 3.10415E+00-6.21230E+00 5.20085E-03
 -1        27 5.68685E+00-5.68685E+00 9.05942E-14
 -1        28-9.89681E-13-3.09660E+00-4.17444E-14
 -1        29 6.21230E+00-3.10415E+00-5.20085E-03
 -1        30-1.23923E-12 1.48193E-12 1.10134E-13
 -1        31 3.09660E+00 1.22569E-12 3.29958E-13
 -1        32 5.61123E+00 1.42464E-12 1.43885E-13
 -1        33 4.07424E-13-4.48258E+00-3.79696E-13
 -1        34 4.51976E+00-4.51976E+00 2.70006E-13
 -1        35 4.25660E-13-3.73035E-13 1.72529E-13
 -1        36 4.48258E+00-3.54383E-13 8.27782E-13
 -1        37-3.41061E-13-5.76837E+00-4.25437E-13
 -1        38 2.25377E+00-4.50276E+00 2.50753E-01
 -1        39 5.82518E+00-5.82518E+00 2.38920E-13
 -1        40 4.23439E-13-2.24447E+00-7.06102E-14
 -1        41 4.50276E+00-2.25377E+00-2.50753E-01
 -1        42-3.49720E-13 5.17808E-13 1.58984E-13
 -1        43 2.24447E+00-3.74367E-13 4.66960E-13
 -1        44 5.76837E+00 4.89830E-13 8.18012E-13
 -1        45 1.03006E-12-1.46935E-01 3.03535E-13
 -1        46 1.48990E-01-1.48990E-01 2.08389E-13
 -1        47 1.07825E-12-1.24745E-12 1.69864E-13
 -1        48 1.46935E-01-1.17861E-12 8.38496E-14
 -1        49 9.37361E-13-2.50709E+00-8.88178E-14
 -1        50 7.37335E-02-1.48219E-01 3.70539E-01
 -1        51 2.53304E+00-2.53304E+00 2.55795E-13
 -1        52 1.07470E-12-7.39124E-02 2.30149E-13
 -1        53 1.48219E-01-7.37335E-02-3.70539E-01
 -1        54 9.73444E-13-1.05738E-12 1.74971E-13
 -1        55 7.39124E-02-1.23812E-12 1.34337E-13
 -1        56 2.50709E+00-1.00786E-12 5.33018E-13
 -1        57-6.92779E-14 4.27665E+00 7.09210E-13
 -1        58-4.31502E+00 4.31502E+00 6.43929E-14
 -1        59-7.39409E-14-3.82472E-14 1.25233E-13
 -1        60-4.27665E+00-2.91989E-14-5.27134E-13
 -1        61 6.30829E-13 2.23613E+00 6.12732E-13
 -1        62-2.14995E+00 4.29796E+00 2.66620E-01
 -1        63-2.25904E+00 2.25904E+00 1.42275E-13
 -1        64-6.88338E-14 2.14239E+00 3.83693E-13
 -1        65-4.29796E+00 2.14995E+00-2.66620E-01
 -1        66 6.48336E-13-8.36442E-13 1.53211E-13
 -1        67-2.14239E+00-2.15938E-14-1.56319E-13
 -1        68-2.23613E+00-7.95364E-13-3.30402E-13
 -1        69-1.03384E-12 6.17112E+00 1.34781E-13
 -1        70-6.22609E+00 6.22609E+00 1.84297E-14
 -1        71-1.11977E-12 1.22091E-12 6.46150E-14
 -1        72-6.17112E+00 1.16640E-12-5.68434E-14
 -1        73-7.23144E-13 5.65695E+00 5.08926E-13
 -1        74-3.10241E+00 6.20155E+00 5.85852E-03
 -1        75-5.71502E+00 5.71502E+00 2.35367E-14
 -1        76-1.10001E-12 3.09125E+00 9.79217E-14
 -1        77-6.20155E+00 3.10241E+00-5.85852E-03
 -1        78-7.59837E-13 7.75213E-13 9.92539E-14
 -1        79-3.09125E+00 1.21236E-12 1.79856E-14
 -1        80-5.65695E+00 7.32747E-13-3.91687E-13
 -1        81-2.90878E-13 4.41632E+00-5.69766E-13
 -1        82-4.45585E+00 4.45585E+00 2.35367E-14
 -1        83-3.09974E-13 4.17444E-13-2.27596E-14
 -1        84-4.41632E+00 4.01457E-13 5.77705E-13
 -1        85-8.73523E-13 5.73253E+00-2.81997E-13
 -1        86-2.22019E+00 4.43824E+00-2.58178E-01
 -1        87-5.79130E+00 5.79130E+00 1.57652E-14
 -1        88-3.01981E-13 2.21232E+00-2.64011E-13
 -1        89-4.43824E+00 2.22019E+00 2.58178E-01
 -1        90-9.20375E-13 1.06892E-12 1.90958E-14
 -1        91-2.21232E+00 4.16112E-13 2.34951E-13
 -1        92-5.73253E+00 1.02851E-12 3.33067E-13
 -1        93 8.81739E-13 4.91534E-02-2.99594E-13
 -1        94-4.90041E-02 4.90041E-02-6.86118E-14
 -1        95 9.36806E-13-1.02696E-12-1.10578E-13
 -1        96-4.91534E-02-9.38361E-13 1.14131E-13
 -1        97 4.17444E-13 2.41796E+00-5.59948E-13
 -1        98-2.45417E-02 4.90758E-02-3.71208E-01
 -1        99-2.44308E+00 2.44308E+00-5.66214E-15
 -1       100 9.33142E-13 2.45333E-02-1.92235E-13
 -1       101-4.90758E-02 2.45417E-02 3.71208E-01
 -1       102 4.34763E-13-4.30767E-13-6.61693E-14
 -1       103-2.45333E-02-1.00253E-12-1.90958E-14
 -1       104-2.41796E+00-3.80140E-13 4.80505E-13
 -1       105 3.47278E-13-4.34207E+00 4.71623E-13
 -1       106 4.38153E+00-4.38153E+00-2.70894E-13
 -1       107 3.93907E-13-4.71290E-13-1.57208E-13
 -1       108 4.34207E+00-4.28546E-13-9.00391E-13
 -1       109 8.75078E-13-2.32587E+00 1.07581E-13
 -1       110 2.18306E+00-4.36398E+00-2.56916E-01
 -1       111 2.35125E+00-2.35125E+00-1.65867E-13
 -1       112 3.99680E-13-2.17508E+00 1.35003E-13
 -1       113 4.36398E+00-2.18306E+00 2.56916E-01
 -1       114 9.26259E-13-1.06515E-12-1.45883E-13
 -1       115 2.17508E+00-4.63185E-13-5.07594E-13
 -1       116 2.32587E+00-1.00031E-12-4.07674E-13
 -1       117-1.39444E-12-6.18252E+00 7.01661E-13
 -1       118 6.25195E+00-6.25195E+00-3.82805E-13
 -1       119-1.39444E-12 1.68043E-12-1.84075E-13
 -1       120 6.18252E+00 1.67244E-12-1.25411E-12
 -1       121-4.93605E-13-5.69907E+00 6.52811E-13
 -1       122 3.11916E+00-6.21900E+00-2.69700E-02
 -1       123 5.74720E+00-5.74720E+00-3.42393E-13
 -1       124-1.38822E-12-3.09512E+00 2.53131E-13
 -1       125 6.21900E+00-3.11916E+00 2.69700E-02
 -1       126-4.69916E-13 5.33129E-13-1.82299E-13
 -1       127 3.09512E+00 1.64535E-12-7.05630E-13
 -1       128 5.69907E+00 5.34461E-13-1.16296E-12
 -1       129 0.00000E+00 0.00000E+00 0.00000E+00
 -1       130 0.00000E+00 0.00000E+00 0.00000E+00
 -1       131-9.68114E-13 4.16975E+00-1.86740E-13
 -1       132 4.17105E+00 4.17105E+00-4.68736E-13
 -1       133 0.00000E+00 0.00000E+00 0.00000E+00
 -1       134 0.00000E+00 0.00000E+00 0.00000E+00
 -1       135-9.94538E-13 2.08283E+00-9.65894E-15
 -1       136 4.16925E+00 2.08893E+00-3.51284E-01
 -1       137 0.00000E+00 0.00000E+00 0.00000E+00
 -1       138-4.71401E-13 2.17629E+00-2.22156E-13
 -1       139 2.08893E+00 4.16925E+00 3.51284E-01
 -1       140 2.10256E+00 2.10256E+00-5.18918E-13
 -1       141-9.61897E-13 6.17606E+00 5.29798E-13
 -1       142 6.23947E+00 6.23947E+00 9.37028E-13
 -1       143-9.99423E-13 3.09660E+00 3.14859E-13
 -1       144 6.21230E+00 3.10415E+00 5.20085E-03
 -1       145-1.20515E-12 5.61123E+00 1.48326E-13
 -1       146 3.10415E+00 6.21230E+00-5.20085E-03
 -1       147 5.68685E+00 5.68685E+00 1.73195E-13
 -1       148 4.10762E-13 4.48258E+00 7.20979E-13
 -1       149 4.51976E+00 4.51976E+00 1.34337E-12
 -1       150 4.27769E-13 2.24447E+00 4.16556E-13
 -1       151 4.50276E+00 2.25377E+00 2.50753E-01
 -1       152-3.38396E-13 5.76837E+00 7.44516E-13
 -1       153 2.25377E+00 4.50276E+00-2.50753E-01
 -1       154 5.82518E+00 5.82518E+00 1.36691E-12
 -1       155 1.01197E-12 1.46935E-01 2.44249E-14
 -1       156 1.48990E-01 1.48990E-01-5.63993E-14
 -1       157 1.06037E-12 7.39124E-02 1.03029E-13
 -1       158 1.48219E-01 7.37335E-02 3.70539E-01
 -1       159 9.27522E-13 2.50709E+00 4.30322E-13
 -1       160 7.37335E-02 1.48219E-01-3.70539E-01
 -1       161 2.53304E+00 2.53304E+00 7.63167E-13
 -1       162-7.50511E-14-4.27665E+00-4.54525E-13
 -1       163-4.31502E+00-4.31502E+00-1.08047E-12
 -1       164-8.46545E-14-2.14239E+00-1.32783E-13
 -1       165-4.29796E+00-2.14995E+00 2.66620E-01
 -1       166 6.08402E-13-2.23613E+00-3.19744E-13
 -1       167-2.14995E+00-4.29796E+00-2.66620E-01
 -1       168-2.25904E+00-2.25904E+00-7.59393E-13
 -1       169-1.07320E-12-6.17112E+00-2.22045E-15
 -1       170-6.22609E+00-6.22609E+00-1.27010E-13
 -1       171-1.10967E-12-3.09125E+00 3.69149E-14
 -1       172-6.20155E+00-3.10241E+00 5.85852E-03
 -1       173-7.41462E-13-5.65695E+00-3.05422E-13
 -1       174-3.10241E+00-6.20155E+00-5.85852E-03
 -1       175-5.71502E+00-5.71502E+00-7.88702E-13
 -1       176-3.09752E-13-4.41632E+00 5.26051E-13
 -1       177-4.45585E+00-4.45585E+00 1.09013E-12
 -1       178-3.15969E-13-2.21232E+00 2.21156E-13
 -1       179-4.43824E+00-2.22019E+00-2.58178E-01
 -1       180-8.99059E-13-5.73253E+00 3.35190E-13
 -1       181-2.22019E+00-4.43824E+00 2.58178E-01
 -1       182-5.79130E+00-5.79130E+00 6.29941E-13
 -1       183 8.62865E-13-4.91534E-02 8.26006E-14
 -1       184-4.90041E-02-4.90041E-02 2.86882E-13
 -1       185 9.26148E-13-2.45333E-02-3.24185E-14
 -1       186-4.90758E-02-2.45417E-02-3.71208E-01
 -1       187 3.90354E-13-2.41796E+00 4.17000E-13
 -1       188-2.45417E-02-4.90758E-02 3.71208E-01
 -1       189-2.44308E+00-2.44308E+00 9.18376E-13
 -1       190 3.51719E-13 4.34207E+00-7.88258E-13
 -1       191 4.38153E+00 4.38153E+00-1.51035E-12
 -1       192 3.84137E-13 2.17508E+00-4.48530E-13
 -1       193 4.36398E+00 2.18306E+00-2.56916E-01
 -1       194 8.62865E-13 2.32587E+00-3.78364E-13
 -1       195 2.18306E+00 4.36398E+00 2.56916E-01
 -1       196 2.35125E+00 2.35125E+00-6.52367E-13
 -1       197-1.39799E-12 6.18252E+00-1.05560E-12
 -1       198 6.25195E+00 6.25195E+00-2.10010E-12
 -1       199-1.39888E-12 3.09512E+00-6.14064E-13
 -1       200 6.21900E+00 3.11916E+00-2.69700E-02
 -1       201-5.09370E-13 5.69907E+00-9.84254E-13
 -1       202 3.11916E+00 6.21900E+00 2.69700E-02
 -1       203 5.74720E+00 5.74720E+00-1.96732E-12
 -1       204 0.00000E+00 0.00000E+00 0.00000E+00
 -1       205-4.17105E+00-4.17105E+00 6.02629E-13
 -1       206 0.00000E+00 0.00000E+00 0.00000E+00
 -1       207-4.16975E+00 1.16618E-12 3.91021E-13
 -1       208 0.00000E+00 0.00000E+00 0.00000E+00
 -1       209-2.10256E+00-2.10256E+00 5.83977E-13
 -1       210-2.08893E+00-4.16925E+00 3.51284E-01
 -1       211 0.00000E+00 0.00000E+00 0.00000E+00
 -1       212-4.16925E+00-2.08893E+00-3.51284E-01
 -1       213 0.00000E+00 0.00000E+00 0.00000E+00
 -1       214-2.17629E+00 5.87086E-13 3.42393E-13
 -1       215-2.08283E+00 1.18128E-12 1.77858E-13
 -1       216-6.23947E+00-6.23947E+00-6.70353E-13
 -1       217-6.17606E+00 1.20393E-12-2.93210E-13
 -1       218-5.68685E+00-5.68685E+00 2.08444E-14
 -1       219-3.10415E+00-6.21230E+00-5.20085E-03
 -1       220-6.21230E+00-3.10415E+00 5.20085E-03
 -1       221-5.61123E+00 1.45262E-12 7.73548E-14
 -1       222-3.09660E+00 1.24167E-12-5.75096E-14
 -1       223-4.51976E+00-4.51976E+00-1.01519E-12
 -1       224-4.48258E+00-3.43725E-13-4.86278E-13
 -1       225-5.82518E+00-5.82518E+00-1.05116E-12
 -1       226-2.25377E+00-4.50276E+00-2.50753E-01
 -1       227-4.50276E+00-2.25377E+00 2.50753E-01
 -1       228-5.76837E+00 5.08482E-13-5.04458E-13
 -1       229-2.24447E+00-3.67262E-13-1.21680E-13
 -1       230-1.48990E-01-1.48990E-01 3.73035E-13
 -1       231-1.46935E-01-1.17950E-12 2.42473E-13
 -1       232-2.53304E+00-2.53304E+00-4.30767E-13
 -1       233-7.37335E-02-1.48219E-01-3.70539E-01
 -1       234-1.48219E-01-7.37335E-02 3.70539E-01
 -1       235-2.50709E+00-1.00253E-12-1.86517E-13
 -1       236-7.39124E-02-1.23146E-12 1.95399E-13
 -1       237 4.31502E+00 4.31502E+00 1.32649E-12
 -1       238 4.27665E+00-4.88498E-14 7.72715E-13
 -1       239 2.25904E+00 2.25904E+00 1.04611E-12
 -1       240 2.14995E+00 4.29796E+00-2.66620E-01
 -1       241 4.29796E+00 2.14995E+00 2.66620E-01
 -1       242 2.23613E+00-8.05578E-13 6.07958E-13
 -1       243 2.14239E+00-6.03961E-14 4.06786E-13
 -1       244 6.22609E+00 6.22609E+00 2.38032E-13
 -1       245 6.17112E+00 1.12954E-12 1.76748E-13
 -1       246 5.71502E+00 5.71502E+00 9.71667E-13
 -1       247 3.10241E+00 6.20155E+00-5.85852E-03
 -1       248 6.20155E+00 3.10241E+00 5.85852E-03
 -1       249 5.65695E+00 7.31443E-13 5.92415E-13
 -1       250 3.09125E+00 1.19815E-12 1.14353E-13
 -1       251 4.45585E+00 4.45585E+00-1.13753E-12
 -1       252 4.41632E+00 3.70592E-13-6.24861E-13
 -1       253 5.79130E+00 5.79130E+00-5.84421E-13
 -1       254 2.22019E+00 4.43824E+00 2.58178E-01
 -1       255 4.43824E+00 2.22019E+00-2.58178E-01
 -1       256 5.73253E+00 9.99534E-13-2.98428E-13
 -1       257 2.21232E+00 4.01679E-13-2.81081E-13
 -1       258 4.90041E-02 4.90041E-02-5.12035E-13
 -1       259 4.91534E-02-9.81215E-13-3.35454E-13
 -1       260 2.44308E+00 2.44308E+00-1.07447E-12
 -1       261 2.45417E-02 4.90758E-02 3.71208E-01
 -1       262 4.90758E-02 2.45417E-02-3.71208E-01
 -1       263 2.41796E+00-4.30989E-13-6.19227E-13
 -1       264 2.45333E-02-1.02562E-12-2.04170E-13
 -1       265-4.38153E+00-4.38153E+00 1.20171E-12
 -1       266-4.34207E+00-4.27436E-13 5.81757E-13
 -1       267-2.35125E+00-2.35125E+00 3.63376E-13
 -1       268-2.18306E+00-4.36398E+00 2.56916E-01
 -1       269-4.36398E+00-2.18306E+00-2.56916E-01
 -1       270-2.32587E+00-1.02474E-12 1.34115E-13
 -1       271-2.17508E+00-4.77396E-13 1.88738E-13
 -1       272-6.25195E+00-6.25195E+00 1.77103E-12
 -1       273-6.18252E+00 1.68088E-12 9.05054E-13
 -1       274-5.74720E+00-5.74720E+00 1.64491E-12
 -1       275-3.11916E+00-6.21900E+00 2.69700E-02
 -1       276-6.21900E+00-3.11916E+00-2.69700E-02
 -1       277-5.69907E+00 5.95746E-13 8.34444E-13
 -1       278-3.09512E+00 1.70264E-12 3.53051E-13
 -1       279 0.00000E+00 0.00000E+00 0.00000E+00
 -1       280-4.17105E+00 4.17105E+00 1.32339E-13
 -1       281 0.00000E+00 0.00000E+00 0.00000E+00
 -1       282-4.16925E+00 2.08893E+00 3.51284E-01
 -1       283 0.00000E+00 0.00000E+00 0.00000E+00
 -1       284-2.10256E+00 2.10256E+00 8.92619E-14
 -1       285-2.08893E+00 4.16925E+00-3.51284E-01
 -1       286-6.23947E+00 6.23947E+00 1.07470E-13
 -1       287-6.21230E+00 3.10415E+00-5.20085E-03
 -1       288-5.68685E+00 5.68685E+00 1.31006E-13
 -1       289-3.10415E+00 6.21230E+00 5.20085E-03
 -1       290-4.51976E+00 4.51976E+00 5.95080E-14
 -1       291-4.50276E+00 2.25377E+00-2.50753E-01
 -1       292-5.82518E+00 5.82518E+00 8.34471E-14
 -1       293-2.25377E+00 4.50276E+00 2.50753E-01
 -1       294-1.48990E-01 1.48990E-01 1.03917E-13
 -1       295-1.48219E-01 7.37335E-02-3.70539E-01
 -1       296-2.53304E+00 2.53304E+00 6.57252E-14
 -1       297-7.37335E-02 1.48219E-01 3.70539E-01
 -1       298 4.31502E+00-4.31502E+00 1.90070E-13
 -1       299 4.29796E+00-2.14995E+00-2.66620E-01
 -1       300 2.25904E+00-2.25904E+00 1.53655E-13
 -1       301 2.14995E+00-4.29796E+00 2.66620E-01
 -1       302 6.22609E+00-6.22609E+00 1.21153E-13
 -1       303 6.20155E+00-3.10241E+00-5.85852E-03
 -1       304 5.71502E+00-5.71502E+00 1.82965E-13
 -1       305 3.10241E+00-6.20155E+00 5.85852E-03
 -1       306 4.45585E+00-4.45585E+00-7.47180E-14
 -1       307 4.43824E+00-2.22019E+00 2.58178E-01
 -1       308 5.79130E+00-5.79130E+00 1.55431E-14
 -1       309 2.22019E+00-4.43824E+00-2.58178E-01
 -1       310 4.90041E-02-4.90041E-02-1.37668E-13
 -1       311 4.90758E-02-2.45417E-02 3.71208E-01
 -1       312 2.44308E+00-2.44308E+00-1.24345E-13
 -1       313 2.45417E-02-4.90758E-02-3.71208E-01
 -1       314-4.38153E+00 4.38153E+00-3.99680E-14
 -1       315-4.36398E+00 2.18306E+00 2.56916E-01
 -1       316-2.35125E+00 2.35125E+00-1.00364E-13
 -1       317-2.18306E+00 4.36398E+00-2.56916E-01
 -1       318-6.25195E+00 6.25195E+00 1.33227E-15
 -1       319-6.21900E+00 3.11916E+00 2.69700E-02
 -1       320-5.74720E+00 5.74720E+00-9.99201E-15
 -1       321-3.11916E+00 6.21900E+00-2.69700E-02
 -3
    1PSTEP                        54           1           1          
    1PGM                1.000000E+00                                  
    1PGK                5.493188E+10                                  
    1PHID                         -1                                  
    1PSUBC                         0                                  
    1PMODE                        14                                  
  100CL  114 37302.02027         321                     2   14MODAL      1
 -4  STRESS      6    1
 -5  SXX         1    4    1    1
 -5  SYY         1    4    2    2
 -5  SZZ         1    4    3    3
 -5  SXY         1    4    1    2
 -5  SYZ         1    4    2    3
 -5  SZX         1    4    3    1
 -1         1 2.23414E+07-2.23414E+07-1.59563E+00 2.06407E-02-3.42391E+13 3.42391E+13
 -1         2 1.02040E+01 1.02050E+01 2.38005E+01-3.92487E+06-3.66319E+13-7.89471E+00
 -1         3-6.87271E-01 2.63306E-01-7.20274E+00 1.09077E+11-5.32437E+13-4.90803E-01
 -1         4 1.90441E+11-1.90441E+11 2.06723E+00 1.25498E-01-1.00034E+13 1.00034E+13
 -1         5-1.04234E+01-1.04400E+01-2.43092E+01 3.92487E+06 9.05844E+00 3.66319E+13
 -1         6 5.98235E-01 6.09189E-01 1.32315E+00 8.70035E-03 8.27930E+00-6.71439E+00
 -1         7 2.79258E-01 4.28843E-01 2.14693E+00 4.52638E-02 8.38811E+00-7.38610E+00
 -1         8 1.66222E-01 8.97038E-01 1.19897E+01-1.09077E+11 5.25642E-01 5.32437E+13
 -1         9-4.25600E+12-4.25593E+12-9.93059E+12-1.89945E+06-3.54276E+13 1.71481E+13
 -1        10 1.54431E+00 1.05347E+00 7.74353E+00-1.14708E+12-4.50288E+13-2.19611E+00
 -1        11 4.74209E+11 1.60927E+11 2.45150E+11 7.30669E+10-3.16428E+13-7.35127E+11
 -1        12-2.30806E+12 2.30806E+12 1.51541E-01 7.98541E-02-2.23409E+13 2.23409E+13
 -1        13 4.25593E+12 4.25600E+12 9.93059E+12 1.89945E+06-1.71481E+13 3.54276E+13
 -1        14 4.71268E+00 4.70595E+00 1.11499E+01-2.02542E+06-1.83004E+13-7.33258E+00
 -1        15 6.67290E-01 8.24646E-01-1.93213E+00 3.60097E+10-2.09825E+13-3.98513E+00
 -1        16-1.60927E+11-4.74209E+11-2.45150E+11-7.30669E+10 7.35127E+11 3.16428E+13
 -1        17-4.24733E+00-4.23397E+00-9.95696E+00 2.02542E+06 8.68427E+00 1.83004E+13
 -1        18 1.19394E-01 1.53071E-01 1.62021E+00 9.62614E-02 6.41263E+00-5.55307E+00
 -1        19-4.30710E-01-4.13586E-01 6.33605E+00-3.60097E+10 4.54949E+00 2.09825E+13
 -1        20-7.02637E-01-1.75745E+00-5.79834E+00 1.14708E+12 2.55643E+00 4.50288E+13
 -1        21-1.60339E+00-1.04736E+00-1.37339E+01 5.70756E+11-9.39079E+11 8.35945E-01
 -1        22 1.46243E+12-1.46243E+12 3.85081E+00-5.79837E-01-1.16229E+12 1.16229E+12
 -1        23 1.16810E+00-1.21893E-01 1.32292E+00 4.35382E-02-3.63948E+00 3.38245E+00
 -1        24 3.22046E+00 1.35339E+00 1.84602E+01-5.70756E+11-8.23799E-01 9.39079E+11
 -1        25-2.01978E+00-3.26172E-01-1.30697E+01 1.03895E+12-2.73865E+13 3.75374E-01
 -1        26 2.02505E+12 2.53886E+10 6.93657E+12 2.12122E+11-1.06176E+12 6.26801E+11
 -1        27 2.22456E+12-2.22456E+12 3.22622E+00 2.66603E-01-5.52559E+12 5.52559E+12
 -1        28 5.09491E-02-1.36475E-01-5.14647E+00 3.58634E+11-5.74647E+11 2.13623E+00
 -1        29-2.53886E+10-2.02505E+12-6.93657E+12-2.12122E+11-6.26801E+11 1.06176E+12
 -1        30 8.01308E-01 8.47073E-02 1.60863E+00 3.12435E-01 1.97676E+00-1.53904E+00
 -1        31 1.54123E+00 7.93884E-01 8.83614E+00-3.58634E+11-2.30325E+00 5.74647E+11
 -1        32 1.80127E+00 1.85254E+00 1.79989E+01-1.03895E+12-2.20619E-01 2.73865E+13
 -1        33-9.36584E-02-1.25830E+00 7.83847E+00 4.11388E+11 4.45361E+13 1.54358E+00
 -1        34 9.96062E+11-9.96062E+11-3.11326E-01-5.25800E-01 1.23815E+13-1.23815E+13
 -1        35-4.28756E-01-4.58916E-01 6.23187E-02-6.34778E-01-7.01599E+00 6.12068E+00
 -1        36-5.40771E-02 5.39246E-01-6.77917E+00-4.11388E+11-1.93958E+00-4.45361E+13
 -1        37-7.38037E-01-7.68555E-01-3.02295E+00 5.96350E+11 2.19478E+13-4.33655E-02
 -1        38 1.65924E+12 2.59929E+11 4.41182E+12 1.80072E+11 2.84770E+13-2.08094E+12
 -1        39 1.43985E+12-1.43985E+12 1.37275E+00-3.05444E-01 5.62097E+12-5.62097E+12
 -1        40 1.21048E-01-6.17096E-01 3.87801E+00 2.31316E+11 1.82508E+13 3.98734E+00
 -1        41-2.59929E+11-1.65924E+12-4.41182E+12-1.80072E+11 2.08094E+12-2.84770E+13
 -1        42 3.47266E-01-3.09806E-01 7.52542E-01-9.12393E-02-4.07639E+00 3.69543E+00
 -1        43-4.34662E-01-3.64960E-01-3.24301E+00-2.31316E+11-4.61006E+00-1.82508E+13
 -1        44 4.22607E-01 1.53198E-01 5.71362E+00-5.96350E+11-1.14136E-02-2.19478E+13
 -1        45 6.87527E-01 2.02935E+00 1.88424E+01 1.27320E+10 6.51896E+13-4.49554E-01
 -1        46 3.32570E+10-3.32570E+10-2.76369E+00-5.29643E-02 1.77885E+13-1.77885E+13
 -1        47 4.46267E-01-6.33538E-01-4.72918E-01 5.59443E-02 1.53401E+00-1.38333E+00
 -1        48-2.51114E-01 4.17416E-01-2.19780E+01-1.27320E+10 2.66434E-01-6.51896E+13
 -1        49 7.65381E-01 3.60352E-01 1.46827E+01 3.14361E+11 5.50921E+13-9.87549E-02
 -1        50 7.21983E+09-3.68252E+10 1.57717E+11 2.22468E+09 4.15053E+13-2.85437E+12
 -1        51 7.19284E+11-7.19284E+11-1.77606E+00 7.39819E-02 1.52305E+13-1.52305E+13
 -1        52 4.80664E-01 2.11455E-01 8.31595E+00 1.05074E+10 2.66394E+13-9.89883E-01
 -1        53 3.68252E+10-7.21983E+09-1.57717E+11-2.22468E+09 2.85437E+12-4.15053E+13
 -1        54 2.02738E-01-4.62066E-01-1.33347E-01-2.52294E-01-2.05900E+00 1.89105E+00
 -1        55 5.26093E-01-4.90062E-02-1.02663E+01-1.05074E+10 8.72635E-01-2.66394E+13
 -1        56 2.93335E-01 5.58105E-01-1.53668E+01-3.14361E+11-3.11890E-02-5.50921E+13
 -1        57-1.37708E+00-7.70142E-01-3.23071E+00-3.93869E+11 4.69717E+13-1.94895E+00
 -1        58-9.66140E+11 9.66140E+11-2.69940E+00-9.30585E-01 1.28538E+13-1.28538E+13
 -1        59 2.67373E+00 3.91642E+00 8.16132E-01 1.06888E+00 8.35870E+00-6.59331E+00
 -1        60-1.51123E-01-2.21765E+00-1.79480E+00 3.93869E+11 1.79686E+00-4.69717E+13
 -1        61 4.09668E-01 1.12000E+00 8.97510E+00-2.67350E+11 5.63151E+13-1.62994E-01
 -1        62-1.46717E+12-1.20223E+11-4.30538E+12-1.62751E+11 2.99266E+13-2.07461E+12
 -1        63-6.20025E+11 6.20025E+11-3.21727E+00 4.82147E-02 1.54711E+13-1.54711E+13
 -1        64 4.90875E-01 1.86292E+00-1.11838E+00-2.31119E+11 1.92044E+13-4.42890E+00
 -1        65 1.20223E+11 1.46717E+12 4.30538E+12 1.62751E+11 2.07461E+12-2.99266E+13
 -1        66 1.86167E+00 1.76650E+00 1.51570E-01 5.52056E-01 3.87550E+00-3.03696E+00
 -1        67 1.31055E+00 6.14029E-01-4.81293E-01 2.31119E+11 5.29226E+00-1.92044E+13
 -1        68-3.06885E-01-1.27063E+00-1.33036E+01 2.67350E+11-2.24945E-01-5.63151E+13
 -1        69 1.75464E+00-1.82007E-01-1.93123E+01-5.68571E+11 1.03550E+12-2.65667E-01
 -1        70-1.39511E+12 1.39511E+12-4.26256E-02-1.48757E+00 2.84908E+11-2.84908E+11
 -1        71-7.69013E-01-4.94787E-01-2.19153E+00-1.16005E-01 1.68430E+00-7.55534E-01
 -1        72 1.69446E+00 1.02551E+00 1.96535E+01 5.68571E+11 1.80367E-01-1.03550E+12
 -1        73-4.03442E-01-1.73584E-01-1.22340E+01-6.65553E+11 2.41050E+13-4.96902E-02
 -1        74-2.14462E+12-1.98817E+11-6.21345E+12-2.36700E+11 6.60354E+11-4.71521E+10
 -1        75-1.54934E+12 1.54934E+12-5.95500E-01-3.55413E-01 6.63265E+12-6.63265E+12
 -1        76 7.78030E-01 2.24487E-01-9.80875E+00-3.31871E+11 4.23476E+11-4.62845E-01
 -1        77 1.98817E+11 2.14462E+12 6.21345E+12 2.36700E+11 4.71521E+10-6.60354E+11
 -1        78 5.79380E-01 9.93529E-01-8.00992E-01 6.26858E-01 3.92940E+00-3.05925E+00
 -1        79 8.03162E-01 3.67920E-01 7.94868E+00 3.31871E+11 9.73503E-01-4.23476E+11
 -1        80 1.68945E-01-1.54297E+00 9.46362E+00 6.65553E+11-1.81335E-01-2.41050E+13
 -1        81-5.80811E-01 1.66492E+00-6.78674E+00-4.07296E+11-4.55017E+13 2.20172E+00
 -1        82-9.99576E+11 9.99576E+11-5.91880E-01 9.48943E-01-1.24580E+13 1.24580E+13
 -1        83 4.85965E-01 2.01739E-01-1.53536E+00 2.36753E-01-8.21057E+00 6.75330E+00
 -1        84 1.02271E+00-3.32642E-02 4.69305E+00 4.07296E+11-1.83461E+00 4.55017E+13
 -1        85 3.81592E-01 1.28955E+00-1.42917E+01-6.74087E+11-2.23256E+13 1.49231E-01
 -1        86-1.52896E+12-1.36012E+11-4.45872E+12-1.68956E+11-2.89927E+13 2.01600E+12
 -1        87-1.56970E+12 1.56970E+12 9.46743E-02-2.31526E-01-6.14645E+12 6.14645E+12
 -1        88-1.53992E-01 7.25769E-01-4.10143E+00-2.38340E+11-1.86041E+13 4.72388E+00
 -1        89 1.36012E+11 1.52896E+12 4.45872E+12 1.68956E+11-2.01600E+12 2.89927E+13
 -1        90-3.95384E-01-3.89128E-01-2.07089E+00-1.24647E-01-2.43729E+00 2.45276E+00
 -1        91 2.36572E-01-2.48077E-01 9.56131E-01 2.38340E+11-5.16544E+00 1.86041E+13
 -1        92 1.51465E+00 7.06665E-01 1.39902E+01 6.74087E+11-1.92474E-01 2.23256E+13
 -1        93-9.74620E-01 8.52409E-01 1.70697E+01 2.65352E+09-6.52461E+13 9.06815E-01
 -1        94 4.44143E+09-4.44143E+09-3.39377E+00 1.14673E+00-1.77710E+13 1.77710E+13
 -1        95-5.00249E-02 4.63718E-01-1.81273E+00-8.59108E-02-4.31808E+00 2.99116E+00
 -1        96 7.94962E-01 8.80270E-01-2.12890E+01-2.65352E+09-1.70287E+00 6.52461E+13
 -1        97-5.03723E-01 7.79419E-01 5.75934E+00-2.90021E+11-5.56082E+13 2.14844E-02
 -1        98 3.22489E+09-1.13783E+09 1.38792E+10 1.27916E+09-4.15273E+13 2.82766E+12
 -1        99-6.72989E+11 6.72989E+11-1.84957E+00 5.30051E-01-1.52605E+13 1.52605E+13
 -1       100 3.91801E-01 1.20790E+00 7.49125E+00 1.37436E+09-2.66606E+13 2.06252E+00
 -1       101 1.13783E+09-3.22489E+09-1.38792E+10-1.27916E+09-2.82766E+12 4.15273E+13
 -1       102 3.47785E-01 7.01539E-01-1.52972E+00-1.52811E-02-4.79884E+00 3.68177E+00
 -1       103 3.10736E-01 4.29821E-01-1.09700E+01-1.37436E+09-3.11346E+00 2.66606E+13
 -1       104 2.15405E+00 1.13196E+00-8.75037E+00 2.90021E+11 6.57654E-02 5.56082E+13
 -1       105-1.99457E+00 3.22180E+00 1.27560E+01 4.00834E+11-4.59243E+13-1.31338E+00
 -1       106 9.93888E+11-9.93888E+11-6.57516E+00-6.96653E-01-1.28104E+13 1.28104E+13
 -1       107 2.27426E+00 1.89406E+00 4.92495E-01-1.58195E+00 4.38654E+00-4.46481E+00
 -1       108 1.61011E-01-1.42767E+00-1.77367E+01-4.00834E+11 8.85109E-01 4.59243E+13
 -1       109-1.31000E+00 1.28687E+00 1.61932E+01 2.91779E+11-5.57617E+13 4.04358E-02
 -1       110 1.33388E+12-5.81955E+10 3.99723E+12 1.65280E+11-2.93754E+13 2.22831E+12
 -1       111 6.79257E+11-6.79257E+11-5.88052E+00 4.40335E-01-1.54926E+13 1.54926E+13
 -1       112 1.15759E+00 3.36041E+00 6.97552E+00 2.35554E+11-1.88280E+13-2.94273E+00
 -1       113 5.81955E+10-1.33388E+12-3.99723E+12-1.65280E+11-2.22831E+12 2.93754E+13
 -1       114 1.35886E+00 1.65571E+00-7.51332E-02-8.99484E-01 1.79254E-01-7.39537E-01
 -1       115 1.10956E+00-4.45328E-01-8.49600E+00-2.35554E+11 2.52012E+00 1.88280E+13
 -1       116 5.67749E-01-5.32654E-01-2.12943E+01-2.91779E+11-1.28143E-01 5.57617E+13
 -1       117-1.10193E+00 1.58081E+00-5.92163E-01 9.30648E+11-2.49645E+12-3.82015E-01
 -1       118 2.01568E+12-2.01568E+12 2.39232E+00 1.03375E+00 5.42710E+11-5.42710E+11
 -1       119-1.42526E+00-5.55822E+00-1.67970E+00 1.72685E+00 2.92430E+00-1.59620E+00
 -1       120 2.83350E+00 6.60522E+00 2.59448E+00-9.30648E+11 1.64649E+00 2.49645E+12
 -1       121-1.96606E+00 1.81470E+00 4.78284E+00 5.63665E+11-2.40373E+13 3.36136E-01
 -1       122 2.26349E+12-6.42826E+11 5.31509E+12 4.36867E+11-9.74079E+11-6.99368E+11
 -1       123 1.30068E+12-1.30068E+12-2.77256E+00 8.43095E-01-5.93584E+12 5.93584E+12
 -1       124-5.19531E-01-1.43115E+00-3.94531E-01 4.93781E+11-8.11426E+11-1.13403E+00
 -1       125 6.42826E+11-2.26349E+12-5.31509E+12-4.36867E+11 6.99368E+11 9.74079E+11
 -1       126-1.52122E-01-3.37883E+00-1.62358E+00 9.12741E-02 2.32516E+00-2.15540E+00
 -1       127 1.95801E-01-4.64844E-01-1.49353E-01-4.93781E+11 2.34038E+00 8.11426E+11
 -1       128 1.73560E+00 2.47961E+00-6.16577E+00-5.63665E+11 1.88560E-02 2.40373E+13
 -1       129-2.23415E+07 2.23414E+07-4.54012E+01-3.04260E-02 3.42391E+13 3.42391E+13
 -1       130-8.62120E+00-8.54585E+00-1.98890E+01-3.92487E+06 3.66319E+13-7.41370E+00
 -1       131 4.74464E-01-2.29492E-01 1.00708E+01 1.09077E+11 5.32437E+13-7.35729E-01
 -1       132-1.90441E+11 1.90441E+11 1.99229E+01 7.54375E-01 1.00034E+13 1.00034E+13
 -1       133-4.25593E+12-4.25600E+12-9.93059E+12 1.89945E+06 1.71481E+13 3.54276E+13
 -1       134-3.44742E+00-3.45193E+00-7.97154E+00-2.02542E+06 1.83004E+13-7.08497E+00
 -1       135-4.11079E-01-3.25447E-01 5.55087E+00 3.60097E+10 2.09825E+13-4.11954E+00
 -1       136 1.60927E+11 4.74209E+11 2.45150E+11-7.30669E+10-7.35127E+11 3.16428E+13
 -1       137 4.25600E+12 4.25593E+12 9.93059E+12-1.89945E+06 3.54276E+13 1.71481E+13
 -1       138-1.43042E+00-8.61572E-01-4.61096E+00-1.14708E+12 4.50288E+13-2.23172E+00
 -1       139-4.74209E+11-1.60927E+11-2.45150E+11 7.30669E+10 3.16428E+13-7.35127E+11
 -1       140 2.30806E+12-2.30806E+12-1.12664E+01-1.16544E+00 2.23409E+13 2.23409E+13
 -1       141 4.99573E-01 1.26538E+00 1.60412E+01 5.70756E+11 9.39079E+11 8.95522E-01
 -1       142-1.46243E+12 1.46243E+12 3.15470E+01-1.90147E-01 1.16229E+12 1.16229E+12
 -1       143 7.85873E-01 4.22150E-01 7.81172E+00 3.58634E+11 5.74647E+11 2.19286E+00
 -1       144 2.53886E+10 2.02505E+12 6.93657E+12-2.12122E+11 6.26801E+11 1.06176E+12
 -1       145 1.82202E+00 5.15625E-01 1.57485E+01 1.03895E+12 2.73865E+13 3.53554E-01
 -1       146-2.02505E+12-2.53886E+10-6.93657E+12 2.12122E+11 1.06176E+12 6.26801E+11
 -1       147-2.22456E+12 2.22456E+12 3.08583E+01 4.25972E-01 5.52559E+12 5.52559E+12
 -1       148 4.23401E-01 1.31958E+00-7.36548E+00 4.11388E+11-4.45361E+13 1.66192E+00
 -1       149-9.96062E+11 9.96062E+11-1.52020E+01-2.19506E-01-1.23815E+13-1.23815E+13
 -1       150-5.08575E-01 6.52771E-02-3.65596E+00 2.31316E+11-1.82508E+13 3.99684E+00
 -1       151 2.59929E+11 1.65924E+12 4.41182E+12-1.80072E+11-2.08094E+12-2.84770E+13
 -1       152 5.65430E-01 1.06836E+00 4.50696E+00 5.96350E+11-2.19478E+13 4.81892E-02
 -1       153-1.65924E+12-2.59929E+11-4.41182E+12 1.80072E+11-2.84770E+13-2.08094E+12
 -1       154-1.43985E+12 1.43985E+12 8.23485E+00 5.29861E-02-5.62097E+12-5.62097E+12
 -1       155-2.63706E-01 1.63284E-01-1.91885E+01 1.27320E+10-6.51896E+13-4.54499E-01
 -1       156-3.32570E+10 3.32570E+10-3.99040E+01 2.07369E-01-1.77885E+13-1.77885E+13
 -1       157 3.78494E-02 1.01428E-01-9.09667E+00 1.05074E+10-2.66394E+13-9.41216E-01
 -1       158-3.68252E+10 7.21983E+09 1.57717E+11-2.22468E+09-2.85437E+12-4.15053E+13
 -1       159 6.63452E-02 1.14758E+00-1.42612E+01 3.14361E+11-5.50921E+13-5.16052E-02
 -1       160-7.21983E+09 3.68252E+10-1.57717E+11 2.22468E+09-4.15053E+13-2.85437E+12
 -1       161-7.19284E+11 7.19284E+11-3.02340E+01-1.21643E-01-1.52305E+13-1.52305E+13
 -1       162-2.68408E+00-2.82617E+00-7.73315E-01-3.93869E+11-4.69717E+13-1.96911E+00
 -1       163 9.66140E+11-9.66140E+11-2.13298E-01-1.07007E+00-1.28538E+13-1.28538E+13
 -1       164 1.66275E-01 3.50830E-01 1.25427E-02-2.31119E+11-1.92044E+13-4.35287E+00
 -1       165-1.20223E+11-1.46717E+12-4.30538E+12 1.62751E+11-2.07461E+12-2.99266E+13
 -1       166-1.45190E+00-8.70117E-01-1.07534E+01-2.67350E+11-5.63151E+13 8.13751E-02
 -1       167 1.46717E+12 1.20223E+11 4.30538E+12-1.62751E+11-2.99266E+13-2.07461E+12
 -1       168 6.20025E+11-6.20025E+11-2.16861E+01-4.61620E-01-1.54711E+13-1.54711E+13
 -1       169 7.87354E-01-2.94067E-01 1.67595E+01-5.68571E+11-1.03550E+12-1.33243E-01
 -1       170 1.39511E+12-1.39511E+12 3.71540E+01 8.78830E-01-2.84908E+11-2.84908E+11
 -1       171 6.89545E-02-3.51868E-02 6.75301E+00-3.31871E+11-4.23476E+11-5.17898E-01
 -1       172-1.98817E+11-2.14462E+12-6.21345E+12 2.36700E+11-4.71521E+10-6.60354E+11
 -1       173-4.53125E-01-1.27051E+00 8.98157E+00-6.65553E+11-2.41050E+13-3.39073E-01
 -1       174 2.14462E+12 1.98817E+11 6.21345E+12-2.36700E+11-6.60354E+11-4.71521E+10
 -1       175 1.54934E+12-1.54934E+12 2.11987E+01-1.75362E-01-6.63265E+12-6.63265E+12
 -1       176 4.77905E-01 1.55652E+00 3.15570E+00-4.07296E+11 4.55017E+13 2.16611E+00
 -1       177 9.99576E+11-9.99576E+11 7.72234E+00 1.78195E-01 1.24580E+13 1.24580E+13
 -1       178 3.14194E-01 5.42053E-01 4.05457E-01-2.38340E+11 1.86041E+13 4.60382E+00
 -1       179-1.36012E+11-1.52896E+12-4.45872E+12 1.68956E+11 2.01600E+12 2.89927E+13
 -1       180 1.15454E+00 9.04541E-01 1.17120E+01-6.74087E+11 2.23256E+13 2.57969E-01
 -1       181 1.52896E+12 1.36012E+11 4.45872E+12-1.68956E+11 2.89927E+13 2.01600E+12
 -1       182 1.56970E+12-1.56970E+12 2.60265E+01 6.93420E-01 6.14645E+12 6.14645E+12
 -1       183 1.64576E+00-1.08644E+00-1.94387E+01 2.65352E+09 6.52461E+13 6.11500E-01
 -1       184-4.44143E+09 4.44143E+09-3.89667E+01 2.19011E-01 1.77710E+13 1.77710E+13
 -1       185 2.93828E-01 2.80295E-01-1.00232E+01 1.37436E+09 2.66606E+13 2.01374E+00
 -1       186-1.13783E+09 3.22489E+09 1.38792E+10-1.27916E+09 2.82766E+12 4.15273E+13
 -1       187 7.24060E-01 5.69458E-01-8.92596E+00-2.90021E+11 5.56082E+13 6.39839E-02
 -1       188-3.22489E+09 1.13783E+09-1.38792E+10 1.27916E+09 4.15273E+13 2.82766E+12
 -1       189 6.72989E+11-6.72989E+11-1.62415E+01 1.28954E+00 1.52605E+13 1.52605E+13
 -1       190-6.41602E-01-1.56213E+00-1.41589E+01 4.00834E+11 4.59243E+13-1.28559E+00
 -1       191-9.93888E+11 9.93888E+11-2.74934E+01-8.73356E-01 1.28104E+13 1.28104E+13
 -1       192-7.75711E-01-1.10480E+00-7.43658E+00 2.35554E+11 1.88280E+13-3.01431E+00
 -1       193-5.81955E+10 1.33388E+12 3.99723E+12-1.65280E+11 2.22831E+12 2.93754E+13
 -1       194-1.42639E-01-1.35803E+00-1.87422E+01 2.91779E+11 5.57617E+13-2.26532E-01
 -1       195-1.33388E+12 5.81955E+10-3.99723E+12 1.65280E+11 2.93754E+13 2.22831E+12
 -1       196-6.79257E+11 6.79257E+11-3.68527E+01-1.35221E+00 1.54926E+13 1.54926E+13
 -1       197-7.35840E-01-1.31836E+00-9.94141E-01 9.30648E+11 2.49645E+12-1.23413E-01
 -1       198-2.01568E+12 2.01568E+12-4.94476E-01 8.06671E-01-5.42710E+11-5.42710E+11
 -1       199-1.11377E+00-2.84497E+00-1.55713E+00 4.93781E+11 8.11426E+11-1.07177E+00
 -1       200-6.42826E+11 2.26349E+12 5.31509E+12-4.36867E+11-6.99368E+11 9.74079E+11
 -1       201 2.87231E-01-9.56299E-01-5.81262E+00 5.63665E+11 2.40373E+13-1.90044E-01
 -1       202-2.26349E+12 6.42826E+11-5.31509E+12 4.36867E+11 9.74079E+11-6.99368E+11
 -1       203-1.30068E+12 1.30068E+12-1.19431E+01 1.13541E-01 5.93584E+12 5.93584E+12
 -1       204-2.23414E+07 2.23415E+07 4.90297E+01 4.04129E-02-3.42391E+13-3.42391E+13
 -1       205-1.90441E+11 1.90441E+11-1.70703E+01-7.92706E-01-1.00034E+13-1.00034E+13
 -1       206 1.18903E+01 1.18649E+01 2.76735E+01 3.92487E+06 9.55395E+00-3.66319E+13
 -1       207-8.80295E-01-1.51208E+00-8.76369E+00-1.09077E+11 4.84438E-01-5.32437E+13
 -1       208 4.25600E+12 4.25593E+12 9.93059E+12-1.89945E+06-3.54276E+13-1.71481E+13
 -1       209 2.30806E+12-2.30806E+12 1.41324E+01 1.08339E+00-2.23409E+13-2.23409E+13
 -1       210-4.74209E+11-1.60927E+11-2.45150E+11 7.30669E+10-3.16428E+13 7.35127E+11
 -1       211-4.25593E+12-4.25600E+12-9.93059E+12 1.89945E+06-1.71481E+13-3.54276E+13
 -1       212 1.60927E+11 4.74209E+11 2.45150E+11-7.30669E+10 7.35127E+11-3.16428E+13
 -1       213 5.53922E+00 5.57568E+00 1.29512E+01 2.02542E+06 8.91502E+00-1.83004E+13
 -1       214 5.23926E-01 1.56165E+00 8.84070E+00 1.14708E+12 2.61436E+00-4.50288E+13
 -1       215 4.43520E-01 5.04055E-01-2.55843E+00-3.60097E+10 4.50733E+00-2.09825E+13
 -1       216-1.46243E+12 1.46243E+12-2.89878E+01 1.06483E-01-1.16229E+12-1.16229E+12
 -1       217-8.77441E-01 9.51538E-02-1.54578E+01-5.70756E+11-8.70072E-01-9.39079E+11
 -1       218-2.22456E+12 2.22456E+12-2.75612E+01-6.39763E-01-5.52559E+12-5.52559E+12
 -1       219-2.02505E+12-2.53886E+10-6.93657E+12 2.12122E+11-1.06176E+12-6.26801E+11
 -1       220 2.53886E+10 2.02505E+12 6.93657E+12-2.12122E+11-6.26801E+11-1.06176E+12
 -1       221-9.67773E-01-1.73779E+00-1.51785E+01-1.03895E+12-2.43832E-01-2.73865E+13
 -1       222 3.88184E-01-3.79089E-01-6.16669E+00-3.58634E+11-2.27535E+00-5.74647E+11
 -1       223-9.96062E+11 9.96062E+11 1.52588E+01-7.59792E-02 1.23815E+13 1.23815E+13
 -1       224-1.52222E+00-1.09406E+00 6.94083E+00-4.11388E+11-1.84602E+00 4.45361E+13
 -1       225-1.43985E+12 1.43985E+12-7.61626E+00 1.45874E-02 5.62097E+12 5.62097E+12
 -1       226-1.65924E+12-2.59929E+11-4.41182E+12 1.80072E+11 2.84770E+13 2.08094E+12
 -1       227 2.59929E+11 1.65924E+12 4.41182E+12-1.80072E+11 2.08094E+12 2.84770E+13
 -1       228-7.65869E-01-6.43311E-02-4.30688E+00-5.96350E+11 1.22757E-02 2.19478E+13
 -1       229-8.96942E-01-5.45532E-01 3.26625E+00-2.31316E+11-4.59855E+00 1.82508E+13
 -1       230-3.32570E+10 3.32570E+10 3.77687E+01 7.04002E-02 1.77885E+13 1.77885E+13
 -1       231 6.51207E-01 3.76884E-01 2.04481E+01-1.27320E+10 1.37857E-01 6.51896E+13
 -1       232-7.19284E+11 7.19284E+11 2.92919E+01-1.27412E-01 1.52305E+13 1.52305E+13
 -1       233-7.21983E+09 3.68252E+10-1.57717E+11 2.22468E+09 4.15053E+13 2.85437E+12
 -1       234-3.68252E+10 7.21983E+09 1.57717E+11-2.22468E+09 2.85437E+12 4.15053E+13
 -1       235-7.29004E-01-3.00964E-01 1.49911E+01-3.14361E+11-1.23337E-01 5.50921E+13
 -1       236 5.14574E-01 5.46370E-02 9.22260E+00-1.05074E+10 9.05751E-01 2.66394E+13
 -1       237 9.66140E+11-9.66140E+11-2.02444E+00-2.95574E-01 1.28538E+13 1.28538E+13
 -1       238-9.07104E-01-3.02789E+00-1.15527E+00 3.93869E+11 2.30192E+00 4.69717E+13
 -1       239 6.20025E+11-6.20025E+11 2.04452E+01 6.56242E-02 1.54711E+13 1.54711E+13
 -1       240 1.46717E+12 1.20223E+11 4.30538E+12-1.62751E+11 2.99266E+13 2.07461E+12
 -1       241-1.20223E+11-1.46717E+12-4.30538E+12 1.62751E+11 2.07461E+12 2.99266E+13
 -1       242-2.63916E-01-1.01489E+00 1.07485E+01 2.67350E+11 6.21338E-02 5.63151E+13
 -1       243 6.88110E-01 5.70465E-01-1.38763E-01 2.31119E+11 5.50896E+00 1.92044E+13
 -1       244 1.39511E+12-1.39511E+12-4.13935E+01 1.22136E+00 2.84908E+11 2.84908E+11
 -1       245 3.18359E-01 1.06549E+00-2.23306E+01 5.68571E+11 3.99719E-01 1.03550E+12
 -1       246 1.54934E+12-1.54934E+12-2.38207E+01 8.93097E-02 6.63265E+12 6.63265E+12
 -1       247 2.14462E+12 1.98817E+11 6.21345E+12-2.36700E+11 6.60354E+11 4.71521E+10
 -1       248-1.98817E+11-2.14462E+12-6.21345E+12 2.36700E+11 4.71521E+10 6.60354E+11
 -1       249 2.22900E-01-1.44910E+00-1.28878E+01 6.65553E+11-5.37624E-02 2.41050E+13
 -1       250 1.66809E-01 5.94009E-01-1.11563E+01 3.31871E+11 1.04881E+00 4.23476E+11
 -1       251 9.99576E+11-9.99576E+11-1.18446E+01-1.79144E-01-1.24580E+13-1.24580E+13
 -1       252-1.68481E+00 6.50024E-02-8.57886E+00 4.07296E+11-2.13637E+00-4.55017E+13
 -1       253 1.56970E+12-1.56970E+12-2.95117E+01-5.74867E-01-6.14645E+12-6.14645E+12
 -1       254 1.52896E+12 1.36012E+11 4.45872E+12-1.68956E+11-2.89927E+13-2.01600E+12
 -1       255-1.36012E+11-1.52896E+12-4.45872E+12 1.68956E+11-2.01600E+12-2.89927E+13
 -1       256-2.82715E-01 3.70728E-01-1.68057E+01 6.74087E+11 1.73271E-01-2.23256E+13
 -1       257-7.04407E-01 4.21600E-01-4.73849E+00 2.38340E+11-5.32833E+00-1.86041E+13
 -1       258-4.44143E+09 4.44143E+09 3.58458E+01 7.26383E-01-1.77710E+13-1.77710E+13
 -1       259-9.46939E-01-2.17398E-01 1.86301E+01-2.65352E+09-1.53218E+00-6.52461E+13
 -1       260 6.72989E+11-6.72989E+11 1.23837E+01 2.93025E-01-1.52605E+13-1.52605E+13
 -1       261-3.22489E+09 1.13783E+09-1.38792E+10 1.27916E+09-4.15273E+13-2.82766E+12
 -1       262-1.13783E+09 3.22489E+09 1.38792E+10-1.27916E+09-2.82766E+12-4.15273E+13
 -1       263-1.53955E+00 1.13770E-01 5.65332E+00 2.90021E+11 1.18942E-02-5.56082E+13
 -1       264-8.08369E-01-2.22301E-02 7.57444E+00-1.37436E+09-3.02917E+00-2.66606E+13
 -1       265-9.93888E+11 9.93888E+11 3.21359E+01-2.33913E-01-1.28104E+13-1.28104E+13
 -1       266-5.39734E+00-4.19330E+00 1.35156E+01-4.00834E+11 1.99842E+00-4.59243E+13
 -1       267-6.79257E+11 6.79257E+11 3.77015E+01 1.23065E+00-1.54926E+13-1.54926E+13
 -1       268-1.33388E+12 5.81955E+10-3.99723E+12 1.65280E+11-2.93754E+13-2.22831E+12
 -1       269-5.81955E+10 1.33388E+12 3.99723E+12-1.65280E+11-2.22831E+12-2.93754E+13
 -1       270-1.66541E+00-8.53394E-01 1.85079E+01-2.91779E+11-2.09404E-01-5.57617E+13
 -1       271-2.77161E-01 3.23425E-01 7.55339E+00-2.35554E+11 3.39024E+00-1.88280E+13
 -1       272-2.01568E+12 2.01568E+12-4.15324E+00 7.00531E-02 5.42710E+11 5.42710E+11
 -1       273 6.59180E-02 3.60205E+00 2.56592E-01-9.30648E+11-4.32739E-02-2.49645E+12
 -1       274-1.30068E+12 1.30068E+12 1.18911E+01-5.20630E-01-5.93584E+12-5.93584E+12
 -1       275-2.26349E+12 6.42826E+11-5.31509E+12 4.36867E+11-9.74079E+11 6.99368E+11
 -1       276-6.42826E+11 2.26349E+12 5.31509E+12-4.36867E+11 6.99368E+11-9.74079E+11
 -1       277-3.74854E+00-2.72180E+00 4.85254E+00-5.63665E+11-3.63476E-01-2.40373E+13
 -1       278 5.52979E-02 1.96533E-02 1.39099E-01-4.93781E+11 1.69759E+00-8.11426E+11
 -1       279 2.23414E+07-2.23414E+07 6.35923E+00-6.32759E-02 3.42391E+13-3.42391E+13
 -1       280 1.90441E+11-1.90441E+11 1.47887E+00 1.50437E-01 1.00034E+13-1.00034E+13
 -1       281 4.25593E+12 4.25600E+12 9.93059E+12 1.89945E+06 1.71481E+13-3.54276E+13
 -1       282-1.60927E+11-4.74209E+11-2.45150E+11-7.30669E+10-7.35127E+11-3.16428E+13
 -1       283-4.25600E+12-4.25593E+12-9.93059E+12-1.89945E+06 3.54276E+13-1.71481E+13
 -1       284-2.30806E+12 2.30806E+12 3.06644E+00 1.89106E-02 2.23409E+13-2.23409E+13
 -1       285 4.74209E+11 1.60927E+11 2.45150E+11 7.30669E+10 3.16428E+13 7.35127E+11
 -1       286 1.46243E+12-1.46243E+12-9.14310E-01 2.38999E-02 1.16229E+12-1.16229E+12
 -1       287-2.53886E+10-2.02505E+12-6.93657E+12-2.12122E+11 6.26801E+11-1.06176E+12
 -1       288 2.22456E+12-2.22456E+12-6.20351E-01 9.43538E-02 5.52559E+12-5.52559E+12
 -1       289 2.02505E+12 2.53886E+10 6.93657E+12 2.12122E+11 1.06176E+12-6.26801E+11
 -1       290 9.96062E+11-9.96062E+11-9.47443E-01-2.47548E-01-1.23815E+13 1.23815E+13
 -1       291-2.59929E+11-1.65924E+12-4.41182E+12-1.80072E+11-2.08094E+12 2.84770E+13
 -1       292 1.43985E+12-1.43985E+12-1.05339E+00-1.11293E-01-5.62097E+12 5.62097E+12
 -1       293 1.65924E+12 2.59929E+11 4.41182E+12 1.80072E+11-2.84770E+13 2.08094E+12
 -1       294 3.32570E+10-3.32570E+10 2.50249E+00-4.50706E-01-1.77885E+13 1.77885E+13
 -1       295 3.68252E+10-7.21983E+09-1.57717E+11-2.22468E+09-2.85437E+12 4.15053E+13
 -1       296 7.19284E+11-7.19284E+11 1.06418E+00-5.66530E-02-1.52305E+13 1.52305E+13
 -1       297 7.21983E+09-3.68252E+10 1.57717E+11 2.22468E+09-4.15053E+13 2.85437E+12
 -1       298-9.66140E+11 9.66140E+11 1.64651E+00 5.15998E-01-1.28538E+13 1.28538E+13
 -1       299 1.20223E+11 1.46717E+12 4.30538E+12 1.62751E+11-2.07461E+12 2.99266E+13
 -1       300-6.20025E+11 6.20025E+11 2.23914E+00 3.59496E-01-1.54711E+13 1.54711E+13
 -1       301-1.46717E+12-1.20223E+11-4.30538E+12-1.62751E+11-2.99266E+13 2.07461E+12
 -1       302-1.39511E+12 1.39511E+12-4.51748E+00-1.34509E+00-2.84908E+11 2.84908E+11
 -1       303 1.98817E+11 2.14462E+12 6.21345E+12 2.36700E+11-4.71521E+10 6.60354E+11
 -1       304-1.54934E+12 1.54934E+12-1.09319E+00-2.79412E-01-6.63265E+12 6.63265E+12
 -1       305-2.14462E+12-1.98817E+11-6.21345E+12-2.36700E+11-6.60354E+11 4.71521E+10
 -1       306-9.99576E+11 9.99576E+11-3.87337E+00 9.27105E-01 1.24580E+13-1.24580E+13
 -1       307 1.36012E+11 1.52896E+12 4.45872E+12 1.68956E+11 2.01600E+12-2.89927E+13
 -1       308-1.56970E+12 1.56970E+12-4.39984E+00 4.11773E-02 6.14645E+12-6.14645E+12
 -1       309-1.52896E+12-1.36012E+11-4.45872E+12-1.68956E+11 2.89927E+13-2.01600E+12
 -1       310 4.44143E+09-4.44143E+09-2.65864E-01-2.14091E+00 1.77710E+13-1.77710E+13
 -1       311 1.13783E+09-3.22489E+09-1.38792E+10-1.27916E+09 2.82766E+12-4.15273E+13
 -1       312-6.72989E+11 6.72989E+11-1.38280E+00-9.95227E-01 1.52605E+13-1.52605E+13
 -1       313 3.22489E+09-1.13783E+09 1.38792E+10 1.27916E+09 4.15273E+13-2.82766E+12
 -1       314 9.93888E+11-9.93888E+11 2.47281E+00-3.27847E-02 1.28104E+13-1.28104E+13
 -1       315 5.81955E+10-1.33388E+12-3.99723E+12-1.65280E+11 2.22831E+12-2.93754E+13
 -1       316 6.79257E+11-6.79257E+11 2.43928E+00-1.37688E+00 1.54926E+13-1.54926E+13
 -1       317 1.33388E+12-5.81955E+10 3.99723E+12 1.65280E+11 2.93754E+13-2.22831E+12
 -1       318 2.01568E+12-2.01568E+12 2.00890E+00-1.89961E+00-5.42710E+11 5.42710E+11
 -1       319 6.42826E+11-2.26349E+12-5.31509E+12-4.36867E+11-6.99368E+11-9.74079E+11
 -1       320 1.30068E+12-1.30068E+12 2.00284E+00-1.07465E+00 5.93584E+12-5.93584E+12
 -1       321 2.26349E+12-6.42826E+11 5.31509E+12 4.36867E+11 9.74079E+11 6.99368E+11
 -3
    1PSTEP                        55           1           1          
    1PGM                1.000000E+00                                  
    1PGK                5.493188E+10                                  
    1PHID                         -1                                  
    1PSUBC                         0                                  
    1PMODE                        14                                  
  100CL  114 37302.02027         321                     2   14MODAL      1
 -4  TOSTRAIN    6    1
 -5  EXX         1    4    1    1
 -5  EYY         1    4    2    2
 -5  EZZ         1    4    3    3
 -5  EXY         1    4    1    2
 -5  EYZ         1    4    2    3
 -5  EZX         1    4    3    1
 -1         1 1.38304E-04-1.38304E-04-5.64036E-12 1.27872E-13-2.11956E+02 2.11956E+02
 -1         2 1.24241E-14 1.87923E-14 8.41772E-11-2.42968E-05-2.26769E+02-4.88884E-11
 -1         3 6.64160E-12 1.25251E-11-3.36928E-11 6.75236E-01-3.29604E+02-3.04268E-12
 -1         4 1.17892E+00-1.17892E+00 1.15093E-11 7.76713E-13-6.19259E+01 6.19259E+01
 -1         5 8.08381E-15-9.51947E-14-8.59573E-11 2.42968E-05 5.60920E-11 2.26769E+02
 -1         6 8.71404E-14 1.56119E-13 4.57505E-12 5.34687E-14 5.12557E-11-4.15607E-11
 -1         7-2.35062E-12-1.42358E-12 9.21208E-12 2.80323E-13 5.19269E-11-4.57310E-11
 -1         8-1.76184E-11-1.30947E-11 5.55738E-11-6.75236E-01 3.25395E-12 3.29604E+02
 -1         9-2.02678E-04 2.28819E-04-3.51286E+01-1.17585E-05-2.19314E+02 1.06155E+02
 -1        10-5.21232E-12-8.24851E-12 3.31620E-11-7.10099E+00-2.78750E+02-1.36013E-11
 -1        11 1.67803E+00-2.61337E-01 2.60044E-01 4.52319E-01-1.95884E+02-4.55079E+00
 -1        12-1.42880E+01 1.42880E+01 1.63903E-12 4.94305E-13-1.38301E+02 1.38301E+02
 -1        13-2.28819E-04 2.02678E-04 3.51286E+01 1.17585E-05-1.06155E+02 2.19314E+02
 -1        14-2.09825E-13-2.50596E-13 3.96379E-11-1.25383E-05-1.13288E+02-4.53875E-11
 -1        15 4.75921E-12 5.73383E-12-1.13315E-11 2.22917E-01-1.29892E+02-2.46662E-11
 -1        16 2.61337E-01-1.67803E+00-2.60044E-01-4.52319E-01 4.55079E+00 1.95884E+02
 -1        17 4.83294E-14 1.28685E-13-3.52974E-11 1.25383E-05 5.37390E-11 1.13288E+02
 -1        18-1.96524E-12-1.75614E-12 7.32701E-12 5.95955E-13 3.96976E-11-3.43690E-11
 -1        19-1.05105E-11-1.04067E-11 3.13782E-11-2.22917E-01 2.81559E-11 1.29892E+02
 -1        20 7.44471E-12 9.18630E-13-2.40957E-11 7.10099E+00 1.58189E-11 2.78750E+02
 -1        21 1.34810E-11 1.69234E-11-6.16129E-11 3.53325E+00-5.81335E+00 5.17728E-12
 -1        22 9.05314E+00-9.05314E+00 1.69941E-11-3.58914E-12-7.19510E+00 7.19510E+00
 -1        23 3.84638E-12-4.13943E-12 4.80479E-12 2.69633E-13-2.25242E-11 2.09407E-11
 -1        24-1.29683E-11-2.45273E-11 8.13735E-11-3.53325E+00-5.09873E-12 5.81335E+00
 -1        25 9.51766E-12 1.99982E-11-5.88831E-11 6.43160E+00-1.69535E+02 2.31876E-12
 -1        26-3.02546E-01-1.26814E+01 3.01021E+01 1.31314E+00-6.57280E+00 3.88019E+00
 -1        27 1.37711E+01-1.37711E+01 1.58046E-11 1.65021E-12-3.42060E+01 3.42060E+01
 -1        28 7.79001E-12 6.62914E-12-2.43837E-11 2.22012E+00-3.55734E+00 1.32258E-11
 -1        29 1.26814E+01 3.02546E-01-3.01021E+01-1.31314E+00-3.88019E+00 6.57280E+00
 -1        30 1.39634E-12-3.03956E-12 6.39478E-12 1.93390E-12 1.22384E-11-9.52743E-12
 -1        31-6.41698E-12-1.10454E-11 3.87420E-11-2.22012E+00-1.42579E-11 3.55734E+00
 -1        32-1.97762E-11-1.94665E-11 8.04903E-11-6.43160E+00-1.36779E-12 1.69535E+02
 -1        33-9.84651E-12-1.70557E-11 3.92576E-11 2.54669E+00 2.75699E+02 9.56857E-12
 -1        34 6.16610E+00-6.16610E+00 1.59076E-12-3.25478E-12 7.66477E+01-7.66477E+01
 -1        35-1.47541E-12-1.66161E-12 1.56518E-12-3.92950E-12-4.34365E-11 3.78939E-11
 -1        36 8.65619E-12 1.23300E-11-3.29757E-11-2.54669E+00-1.20115E-11-2.75699E+02
 -1        37 1.90228E-12 1.71863E-12-1.22415E-11 3.69169E+00 1.35867E+02-2.74114E-13
 -1        38 1.22723E+00-7.43520E+00 1.82670E+01 1.11473E+00 1.76286E+02-1.28820E+01
 -1        39 8.91336E+00-8.91336E+00 9.57222E-12-1.89131E-12 3.47965E+01-3.47965E+01
 -1        40-4.08223E-12-8.65230E-12 1.91760E-11 1.43195E+00 1.12981E+02 2.46773E-11
 -1        41 7.43520E+00-1.22723E+00-1.82670E+01-1.11473E+00 1.28820E+01-1.76286E+02
 -1        42 1.02088E-12-3.04670E-12 3.53066E-12-5.64947E-13-2.52432E-11 2.28759E-11
 -1        43 3.08553E-12 3.51599E-12-1.43012E-11-1.43195E+00-2.85419E-11-1.12981E+02
 -1        44-6.36913E-12-8.03563E-12 2.63836E-11-3.69169E+00-7.14984E-14-1.35867E+02
 -1        45-2.65430E-11-1.82362E-11 8.58450E-11 7.88174E-02 4.03555E+02-2.77178E-12
 -1        46 2.05877E-01-2.05877E-01-1.25351E-11-3.27936E-13 1.10119E+02-1.10119E+02
 -1        47 3.70582E-12-2.97874E-12-1.98424E-12 3.46255E-13 9.49598E-12-8.55244E-12
 -1        48 2.96044E-11 3.37435E-11-1.04894E-10-7.88174E-02 1.65401E-12-4.03555E+02
 -1        49-1.78458E-11-2.03517E-11 6.83101E-11 1.94604E+00 3.41047E+02-6.09957E-13
 -1        50-1.38323E-01-4.10983E-01 7.93328E-01 1.37719E-02 2.56938E+02-1.76699E+01
 -1        51 4.45271E+00-4.45271E+00-6.19056E-12 4.58045E-13 9.42841E+01-9.42841E+01
 -1        52-9.89309E-12-1.15595E-11 3.86108E-11 6.50455E-02 1.64910E+02-6.12610E-12
 -1        53 4.10983E-01 1.38323E-01-7.93328E-01-1.37719E-02 1.76699E+01-2.56938E+02
 -1        54 1.81617E-12-2.29977E-12-2.64463E-13-1.56181E-12-1.27494E-11 1.17008E-11
 -1        55 1.72410E-11 1.36811E-11-4.95681E-11-6.50455E-02 5.42211E-12-1.64910E+02
 -1        56 2.25491E-11 2.41917E-11-7.43913E-11-1.94604E+00-1.98730E-13-3.41047E+02
 -1        57-8.41135E-13 2.91012E-12-1.23158E-11-2.43824E+00 2.90777E+02-1.20722E-11
 -1        58-5.98087E+00 5.98087E+00-1.43533E-11-5.76087E-12 7.95710E+01-7.95710E+01
 -1        59 5.97148E-12 1.36643E-11-5.52806E-12 6.61691E-12 5.17480E-11-4.08188E-11
 -1        60 5.01421E-12-7.77923E-12-5.16746E-12 2.43824E+00 1.11369E-11-2.90777E+02
 -1        61-1.24711E-11-8.07354E-12 4.05533E-11-1.65503E+00 3.48617E+02-1.00697E-12
 -1        62-6.64218E-01 7.67401E+00-1.82341E+01-1.00751E+00 1.85260E+02-1.28428E+01
 -1        63-3.83825E+00 3.83825E+00-1.44277E-11 2.98336E-13 9.57732E+01-9.57732E+01
 -1        64 1.27379E-12 9.76697E-12-8.68773E-12-1.43073E+00 1.18884E+02-2.74142E-11
 -1        65-7.67401E+00 6.64218E-01 1.82341E+01 1.00751E+00 1.28428E+01-1.85260E+02
 -1        66 6.12496E-12 5.53563E-12-4.46101E-12 3.41748E-12 2.40020E-11-1.87948E-11
 -1        67 6.05094E-12 1.73935E-12-5.04191E-12 1.43073E+00 3.27544E-11-1.18884E+02
 -1        68 1.93596E-11 1.33926E-11-6.10962E-11 1.65503E+00-1.38622E-12-3.48617E+02
 -1        69 3.62045E-11 2.42157E-11-9.42096E-11-3.51973E+00 6.41027E+00-1.64714E-12
 -1        70-8.63642E+00 8.63642E+00 5.05555E-13-9.20858E-12 1.76372E+00-1.76372E+00
 -1        71 1.75722E-13 1.87405E-12-8.63052E-12-7.18258E-13 1.04246E-11-4.67873E-12
 -1        72-2.14748E-11-2.56138E-11 8.97019E-11 3.51973E+00 1.11772E-12-6.41027E+00
 -1        73 1.58041E-11 1.72271E-11-5.74337E-11-4.12009E+00 1.49222E+02-3.13971E-13
 -1        74-1.05212E+00 1.09933E+01-2.62401E+01-1.46529E+00 4.08791E+00-2.91894E-01
 -1        75-9.59117E+00 9.59117E+00-4.62017E-12-2.20032E-12 4.10593E+01-4.10593E+01
 -1        76 1.73974E-11 1.39697E-11-4.81413E-11-2.05444E+00 2.62152E+00-2.86468E-12
 -1        77-1.09933E+01 1.05212E+00 2.62401E+01 1.46529E+00 2.91894E-01-4.08791E+00
 -1        78 2.48401E-12 5.04807E-12-6.06222E-12 3.88056E-12 2.43216E-11-1.89380E-11
 -1        79-8.05622E-12-1.07502E-11 3.61773E-11 2.05444E+00 6.02862E-12-2.62152E+00
 -1        80-1.05089E-11-2.11099E-11 4.70313E-11 4.12009E+00-1.12754E-12-1.49222E+02
 -1        81 4.55004E-12 1.84537E-11-3.38634E-11-2.52136E+00-2.81677E+02 1.36291E-11
 -1        82-6.18785E+00 6.18785E+00 1.25043E-13 5.87465E-12-7.71211E+01 7.71211E+01
 -1        83 4.21861E-12 2.45947E-12-8.29213E-12 1.46564E-12-5.08343E-11 4.17976E-11
 -1        84-1.78790E-12-8.32352E-12 2.09346E-11 2.52136E+00-1.13555E-11 2.81677E+02
 -1        85 2.03937E-11 2.60085E-11-7.04438E-11-4.17292E+00-1.38206E+02 9.29146E-13
 -1        86-7.16889E-01 7.90616E+00-1.88534E+01-1.04592E+00-1.79479E+02 1.24800E+01
 -1        87-9.71721E+00 9.71721E+00 5.18362E-13-1.43317E-12-3.80494E+01 3.80494E+01
 -1        88 4.08868E-12 9.53571E-12-2.03464E-11-1.47544E+00-1.15168E+02 2.92434E-11
 -1        89-7.90616E+00 7.16889E-01 1.88534E+01 1.04592E+00-1.24800E+01 1.79479E+02
 -1        90 1.63134E-12 1.67014E-12-8.73968E-12-7.71627E-13-1.50861E-11 1.51830E-11
 -1        91 1.14242E-13-2.88501E-12 4.56922E-12 1.47544E+00-3.19852E-11 1.15168E+02
 -1        92-1.37756E-11-1.87843E-11 6.34406E-11 4.17292E+00-1.18860E-12 1.38206E+02
 -1        93-3.02440E-11-1.89331E-11 8.14583E-11 1.64265E-02-4.03904E+02 5.62639E-12
 -1        94 2.74945E-02-2.74945E-02-1.72170E-11 7.09881E-12-1.10011E+02 1.10011E+02
 -1        95 1.68871E-12 4.86928E-12-9.22332E-12-5.31799E-13-2.67209E-11 1.85159E-11
 -1        96 3.29413E-11 3.34689E-11-1.03770E-10-1.64265E-02-1.05370E-11 4.03904E+02
 -1        97-1.17415E-11-3.79519E-12 2.70317E-11-1.79537E+00-3.44241E+02 1.32561E-13
 -1        98-2.84538E-03-2.98527E-02 6.31101E-02 7.91859E-03-2.57074E+02 1.75046E+01
 -1        99-4.16612E+00 4.16612E+00-9.18972E-12 3.28131E-12-9.44695E+01 9.44695E+01
 -1       100-1.05619E-11-5.50980E-12 3.33876E-11 8.50795E-03-1.65042E+02 1.27692E-11
 -1       101 2.98527E-02 2.84538E-03-6.31101E-02-7.91859E-03-1.75046E+01 2.57074E+02
 -1       102 2.83917E-12 5.02928E-12-8.78369E-12-9.46190E-14-2.97191E-11 2.27883E-11
 -1       103 1.65374E-11 1.72742E-11-5.32963E-11-8.50795E-03-1.92730E-11 1.65042E+02
 -1       104 2.11413E-11 1.48134E-11-4.63613E-11 1.79537E+00 3.99680E-13 3.44241E+02
 -1       105-3.23235E-11-2.93099E-14 5.89892E-11 2.48136E+00-2.84293E+02-8.12574E-12
 -1       106 6.15264E+00-6.15264E+00-1.95394E-11-4.31276E-12-7.93022E+01 7.93022E+01
 -1       107 7.42038E-12 5.06710E-12-3.60992E-12-9.79296E-12 2.71625E-11-2.76450E-11
 -1       108 2.81464E-11 1.83084E-11-8.26517E-11-2.48136E+00 5.48427E-12 2.84293E+02
 -1       109-3.12088E-11-1.51350E-11 7.71430E-11 1.80625E+00-3.45192E+02 2.46692E-13
 -1       110 7.24628E-01-7.89299E+00 1.72120E+01 1.02316E+00-1.81848E+02 1.37943E+01
 -1       111 4.20492E+00-4.20492E+00-2.02399E-11 2.72592E-12-9.59064E+01 9.59064E+01
 -1       112-9.25302E-12 4.38327E-12 2.67620E-11 1.45819E+00-1.16555E+02-1.82183E-11
 -1       113 7.89299E+00-7.24628E-01-1.72120E+01-1.02316E+00-1.37943E+01 1.81848E+02
 -1       114 4.21273E-12 6.05029E-12-4.66393E-12-5.56826E-12 1.11254E-12-4.58431E-12
 -1       115 1.80577E-11 8.43100E-12-4.14061E-11-1.45819E+00 1.56136E-11 1.16555E+02
 -1       116 3.38849E-11 2.70719E-11-1.01451E-10-1.80625E+00-8.02247E-13 3.45192E+02
 -1       117-6.66214E-12 9.95293E-12-3.50696E-12 5.76115E+00-1.54542E+01-2.36897E-12
 -1       118 1.24780E+01-1.24780E+01-4.94159E-12 6.39871E-12 3.35963E+00-3.35963E+00
 -1       119 3.55309E-12-2.20323E-11 1.97759E-12 1.06898E-11 1.81016E-11-9.88644E-12
 -1       120 3.46390E-13 2.36996E-11-1.12625E-12-5.76115E+00 1.02001E-11 1.54542E+01
 -1       121-1.87882E-11 4.61853E-12 2.29921E-11 3.48935E+00-1.48802E+02 2.08369E-12
 -1       122 4.10384E+00-1.38876E+01 2.29947E+01 2.70442E+00-6.03001E+00-4.32942E+00
 -1       123 8.05182E+00-8.05182E+00-1.11436E-11 5.21921E-12-3.67457E+01 3.67457E+01
 -1       124 1.33643E-13-5.50848E-12 9.09271E-13 3.05674E+00-5.02311E+00-7.01877E-12
 -1       125 1.38876E+01-4.10384E+00-2.29947E+01-2.70442E+00 4.32942E+00 6.03001E+00
 -1       126 6.42150E-12-1.35526E-11-2.68678E-12 5.65096E-13 1.43948E-11-1.33404E-11
 -1       127 1.81100E-12-2.27963E-12-3.27683E-13-3.05674E+00 1.44903E-11 5.02311E+00
 -1       128 1.35341E-11 1.81357E-11-3.53817E-11-3.48935E+00 1.16962E-13 1.48802E+02
 -1       129-1.38304E-04 1.38304E-04-1.60726E-10-1.88016E-13 2.11956E+02 2.11956E+02
 -1       130-4.33674E-13 3.36953E-14-7.01873E-11-2.42968E-05 2.26769E+02-4.58851E-11
 -1       131-1.17993E-11-1.61574E-11 4.76052E-11 6.75236E-01 3.29604E+02-4.54771E-12
 -1       132-1.17892E+00 1.17892E+00 9.16628E-11 4.66997E-12 6.19259E+01 6.19259E+01
 -1       133 2.28819E-04-2.02678E-04-3.51286E+01 1.17585E-05 1.06155E+02 2.19314E+02
 -1       134-9.78384E-14-1.24206E-13-2.81041E-11-1.25383E-05 1.13288E+02-4.38482E-11
 -1       135-9.42291E-12-8.89097E-12 2.74841E-11 2.22917E-01 1.29892E+02-2.55016E-11
 -1       136-2.61337E-01 1.67803E+00 2.60044E-01-4.52319E-01-4.55079E+00 1.95884E+02
 -1       137 2.02678E-04-2.28819E-04 3.51286E+01-1.17585E-05 2.19314E+02 1.06155E+02
 -1       138 1.00744E-12 4.52260E-12-1.86812E-11-7.10099E+00 2.78750E+02-1.38133E-11
 -1       139-1.67803E+00 2.61337E-01-2.60044E-01 4.52319E-01 1.95884E+02-4.55079E+00
 -1       140 1.42880E+01-1.42880E+01-4.68268E-11-7.21431E-12 1.38301E+02 1.38301E+02
 -1       141-2.23435E-11-1.76090E-11 7.38653E-11 3.53325E+00 5.81335E+00 5.54390E-12
 -1       142-9.05314E+00 9.05314E+00 1.48136E-10-1.17711E-12 7.19510E+00 7.19510E+00
 -1       143-8.02060E-12-1.02717E-11 3.54735E-11 2.22012E+00 3.55734E+00 1.35725E-11
 -1       144-1.26814E+01-3.02546E-01 3.01021E+01-1.31314E+00 3.88019E+00 6.57280E+00
 -1       145-1.45590E-11-2.26432E-11 7.16514E-11 6.43160E+00 1.69535E+02 2.18672E-12
 -1       146 3.02546E-01 1.26814E+01-3.01021E+01 1.31314E+00 6.57280E+00 3.88019E+00
 -1       147-1.37711E+01 1.37711E+01 1.40600E-10 2.63667E-12 3.42060E+01 3.42060E+01
 -1       148 1.06528E-11 1.62030E-11-3.75632E-11 2.54669E+00-2.75699E+02 1.02920E-11
 -1       149-6.16610E+00 6.16610E+00-7.11260E-11-1.35853E-12-7.66477E+01-7.66477E+01
 -1       150 2.70737E-12 6.25988E-12-1.67745E-11 1.43195E+00-1.12981E+02 2.47396E-11
 -1       151-7.43520E+00 1.22723E+00 1.82670E+01-1.11473E+00-1.28820E+01-1.76286E+02
 -1       152-5.27271E-12-2.15561E-12 1.91266E-11 3.69169E+00-1.35867E+02 2.98067E-13
 -1       153-1.22723E+00 7.43520E+00-1.82670E+01 1.11473E+00-1.76286E+02-1.28820E+01
 -1       154-8.91336E+00 8.91336E+00 4.06120E-11 3.28015E-13-3.47965E+01-3.47965E+01
 -1       155 2.59241E-11 2.85668E-11-9.12314E-11 7.88174E-02-4.03555E+02-2.81783E-12
 -1       156-2.05877E-01 2.05877E-01-1.83413E-10 1.28376E-12-1.10119E+02-1.10119E+02
 -1       157 1.30306E-11 1.34242E-11-4.35166E-11 6.50455E-02-1.64910E+02-5.82611E-12
 -1       158-4.10983E-01-1.38323E-01 7.93328E-01-1.37719E-02-1.76699E+01-2.56938E+02
 -1       159 1.90497E-11 2.57443E-11-6.96469E-11 1.94604E+00-3.41047E+02-3.20716E-13
 -1       160 1.38323E-01 4.10983E-01-7.93328E-01 1.37719E-02-2.56938E+02-1.76699E+01
 -1       161-4.45271E+00 4.45271E+00-1.40041E-10-7.53161E-13-9.42841E+01-9.42841E+01
 -1       162-7.63910E-12-8.51985E-12 4.18870E-12-2.43824E+00-2.90777E+02-1.21840E-11
 -1       163 5.98087E+00-5.98087E+00-2.40191E-12-6.62434E-12-7.95710E+01-7.95710E+01
 -1       164 2.72503E-13 1.41576E-12-6.78765E-13-1.43073E+00-1.18884E+02-2.69540E-11
 -1       165 7.67401E+00-6.64218E-01-1.82341E+01 1.00751E+00-1.28428E+01-1.85260E+02
 -1       166 9.69142E-12 1.32934E-11-4.78891E-11-1.65503E+00-3.48617E+02 5.08510E-13
 -1       167 6.64218E-01-7.67401E+00 1.82341E+01-1.00751E+00-1.85260E+02-1.28428E+01
 -1       168 3.83825E+00-3.83825E+00-1.02460E-10-2.85763E-12-9.57732E+01-9.57732E+01
 -1       169-1.97735E-11-2.64690E-11 7.91035E-11-3.51973E+00-6.41027E+00-8.23352E-13
 -1       170 8.63642E+00-8.63642E+00 1.75163E-10 5.44020E-12-1.76372E+00-1.76372E+00
 -1       171-9.26877E-12-9.91407E-12 3.21105E-11-2.05444E+00-2.62152E+00-3.20803E-12
 -1       172 1.09933E+01-1.05212E+00-2.62401E+01 1.46529E+00-2.91894E-01-4.08791E+00
 -1       173-1.31748E-11-1.82299E-11 4.52320E-11-4.12009E+00-1.49222E+02-2.10125E-12
 -1       174 1.05212E+00-1.09933E+01 2.62401E+01-1.46529E+00-4.08791E+00-2.91894E-01
 -1       175 9.59117E+00-9.59117E+00 9.53273E-11-1.08547E-12-4.10593E+01-4.10593E+01
 -1       176-4.45354E-12 2.22000E-12 1.21188E-11-2.52136E+00 2.81677E+02 1.34146E-11
 -1       177 6.18785E+00-6.18785E+00 3.70506E-11 1.10303E-12 7.71211E+01 7.71211E+01
 -1       178 1.43119E-13 1.55287E-12 7.07152E-13-1.47544E+00 1.15168E+02 2.84908E-11
 -1       179 7.90616E+00-7.16889E-01-1.88534E+01 1.04592E+00 1.24800E+01 1.79479E+02
 -1       180-1.25257E-11-1.40714E-11 5.28282E-11-4.17292E+00 1.38206E+02 1.59454E-12
 -1       181 7.16889E-01-7.90616E+00 1.88534E+01-1.04592E+00 1.79479E+02 1.24800E+01
 -1       182 9.71721E+00-9.71721E+00 1.21763E-10 4.29268E-12 3.80494E+01 3.80494E+01
 -1       183 3.71589E-11 2.02449E-11-9.33645E-11 1.64265E-02 4.03904E+02 3.79451E-12
 -1       184-2.74945E-02 2.74945E-02-1.84029E-10 1.35577E-12 1.10011E+02 1.10011E+02
 -1       185 1.53178E-11 1.52339E-11-4.85498E-11 8.50795E-03 1.65042E+02 1.24601E-11
 -1       186-2.98527E-02-2.84538E-03 6.31101E-02-7.91859E-03 1.75046E+01 2.57074E+02
 -1       187 1.53868E-11 1.44280E-11-4.43538E-11-1.79537E+00 3.44241E+02 3.85914E-13
 -1       188 2.84538E-03 2.98527E-02-6.31101E-02 7.91859E-03 2.57074E+02 1.75046E+01
 -1       189 4.16612E+00-4.16612E+00-8.02671E-11 7.98275E-12 9.44695E+01 9.44695E+01
 -1       190 1.94042E-11 1.37055E-11-6.42758E-11 2.48136E+00 2.84293E+02-7.97130E-12
 -1       191-6.15264E+00 6.15264E+00-1.43566E-10-5.40640E-12 7.93022E+01 7.93022E+01
 -1       192 8.50768E-12 6.47071E-12-3.27256E-11 1.45819E+00 1.16555E+02-1.86594E-11
 -1       193-7.89299E+00 7.24628E-01 1.72120E+01-1.02316E+00 1.37943E+01 1.81848E+02
 -1       194 2.80358E-11 2.05107E-11-8.71048E-11 1.80625E+00 3.45192E+02-1.40998E-12
 -1       195-7.24628E-01 7.89299E+00-1.72120E+01 1.02316E+00 1.81848E+02 1.37943E+01
 -1       196-4.20492E+00 4.20492E+00-1.79657E-10-8.37092E-12 9.59064E+01 9.59064E+01
 -1       197-2.01283E-13-3.80673E-12-1.79762E-12 5.76115E+00 1.54542E+01-7.58338E-13
 -1       198-1.24780E+01 1.24780E+01 5.88374E-12 4.99301E-12-3.35963E+00-3.35963E+00
 -1       199 9.85448E-13-9.73133E-12-1.76070E-12 3.05674E+00 5.02311E+00-6.63292E-12
 -1       200-1.38876E+01 4.10384E+00 2.29947E+01-2.70442E+00-4.32942E+00 6.03001E+00
 -1       201 1.10374E-11 3.34133E-12-2.67234E-11 3.48935E+00 1.48802E+02-1.17606E-12
 -1       202-4.10384E+00 1.38876E+01-2.29947E+01 2.70442E+00 6.03001E+00-4.32942E+00
 -1       203-8.05182E+00 8.05182E+00-5.89629E-11 7.02827E-13 3.67457E+01 3.67457E+01
 -1       204-1.38304E-04 1.38304E-04 1.73350E-10 2.50189E-13-2.11956E+02-2.11956E+02
 -1       205-1.17892E+00 1.17892E+00-7.91904E-11-4.90745E-12-6.19259E+01-6.19259E+01
 -1       206 1.35225E-13-1.99164E-14 9.78458E-11 2.42968E-05 5.91250E-11-2.26769E+02
 -1       207 1.04867E-11 6.57598E-12-3.83154E-11-6.75236E-01 2.99632E-12-3.29604E+02
 -1       208 2.02678E-04-2.28819E-04 3.51286E+01-1.17585E-05-2.19314E+02-1.06155E+02
 -1       209 1.42880E+01-1.42880E+01 6.02161E-11 6.70619E-12-1.38301E+02-1.38301E+02
 -1       210-1.67803E+00 2.61337E-01-2.60044E-01 4.52319E-01-1.95884E+02 4.55079E+00
 -1       211 2.28819E-04-2.02678E-04-3.51286E+01 1.17585E-05-1.06155E+02-2.19314E+02
 -1       212-2.61337E-01 1.67803E+00 2.60044E-01-4.52319E-01 4.55079E+00-1.95884E+02
 -1       213-8.83738E-14 1.35577E-13 4.57930E-11 1.25383E-05 5.51937E-11-1.13288E+02
 -1       214-1.23679E-11-5.94381E-12 3.91197E-11 7.10099E+00 1.61819E-11-2.78750E+02
 -1       215 5.04613E-12 5.42210E-12-1.35357E-11-2.22917E-01 2.79041E-11-1.29892E+02
 -1       216-9.05314E+00 9.05314E+00-1.33538E-10 6.59139E-13-7.19510E+00-7.19510E+00
 -1       217 1.77742E-11 2.37885E-11-7.24941E-11-3.53325E+00-5.38803E-12-5.81335E+00
 -1       218-1.37711E+01 1.37711E+01-1.27313E-10-3.95989E-12-3.42060E+01-3.42060E+01
 -1       219 3.02546E-01 1.26814E+01-3.01021E+01 1.31314E+00-6.57280E+00-3.88019E+00
 -1       220-1.26814E+01-3.02546E-01 3.01021E+01-1.31314E+00-3.88019E+00-6.57280E+00
 -1       221 1.95577E-11 1.47925E-11-6.84188E-11-6.43160E+00-1.50871E-12-1.69535E+02
 -1       222 1.11974E-11 6.45047E-12-2.93764E-11-2.22012E+00-1.40852E-11-3.55734E+00
 -1       223-6.16610E+00 6.16610E+00 7.19679E-11-4.70277E-13 7.66477E+01 7.66477E+01
 -1       224-1.56004E-11-1.29509E-11 3.67904E-11-2.54669E+00-1.14291E-11 2.75699E+02
 -1       225-8.91336E+00 8.91336E+00-3.44408E-11 9.03722E-14 3.47965E+01 3.47965E+01
 -1       226-1.22723E+00 7.43520E+00-1.82670E+01 1.11473E+00 1.76286E+02 1.28820E+01
 -1       227-7.43520E+00 1.22723E+00 1.82670E+01-1.11473E+00 1.28820E+01 1.76286E+02
 -1       228 2.59970E-12 6.93887E-12-1.93229E-11-3.69169E+00 7.88813E-14 1.35867E+02
 -1       229-8.15781E-12-5.98192E-12 1.76140E-11-1.43195E+00-2.84683E-11 1.12981E+02
 -1       230-2.05877E-01 2.05877E-01 1.78385E-10 4.35943E-13 1.10119E+02 1.10119E+02
 -1       231-2.66490E-11-2.83479E-11 9.59036E-11-7.88174E-02 8.47884E-13 4.03555E+02
 -1       232-4.45271E+00 4.45271E+00 1.38884E-10-7.88716E-13 9.42841E+01 9.42841E+01
 -1       233 1.38323E-01 4.10983E-01-7.93328E-01 1.37719E-02 2.56938E+02 1.76699E+01
 -1       234-4.10983E-01-1.38323E-01 7.93328E-01-1.37719E-02 1.76699E+01 2.56938E+02
 -1       235-2.44587E-11-2.18071E-11 7.28586E-11-1.94604E+00-7.63417E-13 3.41047E+02
 -1       236-1.08031E-11-1.36496E-11 4.31041E-11-6.50455E-02 5.60391E-12 1.64910E+02
 -1       237 5.98087E+00-5.98087E+00-8.04312E-12-1.82984E-12 7.95710E+01 7.95710E+01
 -1       238 1.65512E-12-1.14713E-11 1.17290E-13 2.43824E+00 1.42495E-11 2.90777E+02
 -1       239 3.83825E+00-3.83825E+00 9.53908E-11 4.06120E-13 9.57732E+01 9.57732E+01
 -1       240 6.64218E-01-7.67401E+00 1.82341E+01-1.00751E+00 1.85260E+02 1.28428E+01
 -1       241 7.67401E+00-6.64218E-01-1.82341E+01 1.00751E+00 1.28428E+01 1.85260E+02
 -1       242-1.51634E-11-1.98104E-11 5.30103E-11 1.65503E+00 3.93297E-13 3.48617E+02
 -1       243 2.65921E-12 1.93141E-12-2.45764E-12 1.43073E+00 3.41006E-11 1.18884E+02
 -1       244 8.63642E+00-8.63642E+00-1.88003E-10 7.56015E-12 1.76372E+00 1.76372E+00
 -1       245 3.18927E-11 3.65219E-11-1.08313E-10 3.51973E+00 2.47296E-12 6.41027E+00
 -1       246 9.59117E+00-9.59117E+00-1.08870E-10 5.52614E-13 4.10593E+01 4.10593E+01
 -1       247 1.05212E+00-1.09933E+01 2.62401E+01-1.46529E+00 4.08791E+00 2.91894E-01
 -1       248 1.09933E+01-1.05212E+00-2.62401E+01 1.46529E+00 2.91894E-01 4.08791E+00
 -1       249 2.15454E-11 1.11903E-11-5.96155E-11 4.12009E+00-3.30319E-13 1.49222E+02
 -1       250 1.58853E-11 1.85270E-11-5.42116E-11 2.05444E+00 6.49424E-12 2.62152E+00
 -1       251 6.18785E+00-6.18785E+00-6.05557E-11-1.10883E-12-7.71211E+01-7.71211E+01
 -1       252 4.14291E-12 1.49722E-11-3.85398E-11 2.52136E+00-1.32320E-11-2.81677E+02
 -1       253 9.71721E+00-9.71721E+00-1.37578E-10-3.55871E-12-3.80494E+01-3.80494E+01
 -1       254 7.16889E-01-7.90616E+00 1.88534E+01-1.04592E+00-1.79479E+02-1.24800E+01
 -1       255 7.90616E+00-7.16889E-01-1.88534E+01 1.04592E+00-1.24800E+01-1.79479E+02
 -1       256 2.21334E-11 2.61763E-11-8.01494E-11 4.17292E+00 1.07332E-12-1.38206E+02
 -1       257 2.81286E-12 9.78348E-12-2.21598E-11 1.47544E+00-3.29832E-11-1.15168E+02
 -1       258-2.74945E-02 2.74945E-02 1.70504E-10 4.49674E-12-1.10011E+02-1.10011E+02
 -1       259-3.08127E-11-2.62972E-11 9.03785E-11-1.64265E-02-9.48108E-12-4.03904E+02
 -1       260 4.16612E+00-4.16612E+00 6.25123E-11 1.81394E-12-9.44695E+01-9.44695E+01
 -1       261 2.84538E-03 2.98527E-02-6.31101E-02 7.91859E-03-2.57074E+02-1.75046E+01
 -1       262-2.98527E-02-2.84538E-03 6.31101E-02-7.91859E-03-1.75046E+01-2.57074E+02
 -1       263-1.55698E-11-5.33587E-12 2.89561E-11 1.79537E+00 6.23390E-14-3.44241E+02
 -1       264-1.46380E-11-9.77155E-12 3.72546E-11-8.50795E-03-1.87535E-11-1.65042E+02
 -1       265-6.15264E+00 6.15264E+00 1.42078E-10-1.44793E-12-7.93022E+01-7.93022E+01
 -1       266-3.90199E-11-3.15645E-11 7.80616E-11-2.48136E+00 1.23658E-11-2.84293E+02
 -1       267-4.20492E+00 4.20492E+00 1.71349E-10 7.61827E-12-9.59064E+01-9.59064E+01
 -1       268-7.24628E-01 7.89299E+00-1.72120E+01 1.02316E+00-1.81848E+02-1.37943E+01
 -1       269-7.89299E+00 7.24628E-01 1.72120E+01-1.02316E+00-1.37943E+01-1.81848E+02
 -1       270-3.31521E-11-2.81240E-11 9.17317E-11-1.80625E+00-1.29718E-12-3.45192E+02
 -1       271-1.25724E-11-8.85479E-12 3.59028E-11-1.45819E+00 2.09922E-11-1.16555E+02
 -1       272-1.24780E+01 1.24780E+01-6.48415E-12 4.33431E-13 3.35963E+00 3.35963E+00
 -1       273-5.20028E-12 1.66903E-11-4.01585E-12-5.76115E+00-2.65121E-13-1.54542E+01
 -1       274-8.05182E+00 8.05182E+00 5.69379E-11-3.22292E-12-3.67457E+01-3.67457E+01
 -1       275-4.10384E+00 1.38876E+01-2.29947E+01 2.70442E+00-6.03001E+00 4.32942E+00
 -1       276-1.38876E+01 4.10384E+00 2.29947E+01-2.70442E+00 4.32942E+00-6.03001E+00
 -1       277-2.08926E-11-1.45374E-11 3.23453E-11-3.48935E+00-2.24590E-12-1.48802E+02
 -1       278 3.55271E-14-1.83423E-13 5.54778E-13-3.05674E+00 1.05144E-11-5.02311E+00
 -1       279 1.38304E-04-1.38304E-04 2.24704E-11-3.91889E-13 2.11956E+02-2.11956E+02
 -1       280 1.17892E+00-1.17892E+00 2.96311E-12 9.31095E-13 6.19259E+01-6.19259E+01
 -1       281-2.28819E-04 2.02678E-04 3.51286E+01 1.17585E-05 1.06155E+02-2.19314E+02
 -1       282 2.61337E-01-1.67803E+00-2.60044E-01-4.52319E-01-4.55079E+00-1.95884E+02
 -1       283-2.02678E-04 2.28819E-04-3.51286E+01-1.17585E-05 2.19314E+02-1.06155E+02
 -1       284-1.42880E+01 1.42880E+01 1.32336E-11 1.16697E-13 1.38301E+02-1.38301E+02
 -1       285 1.67803E+00-2.61337E-01 2.60044E-01 4.52319E-01 1.95884E+02 4.55079E+00
 -1       286 9.05314E+00-9.05314E+00-5.85863E-12 1.47629E-13 7.19510E+00-7.19510E+00
 -1       287 1.26814E+01 3.02546E-01-3.01021E+01-1.31314E+00 3.88019E+00-6.57280E+00
 -1       288 1.37711E+01-1.37711E+01-2.48267E-12 5.83798E-13 3.42060E+01-3.42060E+01
 -1       289-3.02546E-01-1.26814E+01 3.01021E+01 1.31314E+00 6.57280E+00-3.88019E+00
 -1       290 6.16610E+00-6.16610E+00-3.36400E-12-1.53239E-12-7.66477E+01 7.66477E+01
 -1       291 7.43520E+00-1.22723E+00-1.82670E+01-1.11473E+00-1.28820E+01 1.76286E+02
 -1       292 8.91336E+00-8.91336E+00-4.81246E-12-6.89152E-13-3.47965E+01 3.47965E+01
 -1       293 1.22723E+00-7.43520E+00 1.82670E+01 1.11473E+00-1.76286E+02 1.28820E+01
 -1       294 2.05877E-01-2.05877E-01 1.10654E-11-2.79009E-12-1.10119E+02 1.10119E+02
 -1       295 4.10983E-01 1.38323E-01-7.93328E-01-1.37719E-02-1.76699E+01 2.56938E+02
 -1       296 4.45271E+00-4.45271E+00 4.43094E-12-3.50701E-13-9.42841E+01 9.42841E+01
 -1       297-1.38323E-01-4.10983E-01 7.93328E-01 1.37719E-02-2.56938E+02 1.76699E+01
 -1       298-5.98087E+00 5.98087E+00 5.01254E-12 3.19418E-12-7.95710E+01 7.95710E+01
 -1       299-7.67401E+00 6.64218E-01 1.82341E+01 1.00751E+00-1.28428E+01 1.85260E+02
 -1       300-3.83825E+00 3.83825E+00 8.60704E-12 2.22551E-12-9.57732E+01 9.57732E+01
 -1       301-6.64218E-01 7.67401E+00-1.82341E+01-1.00751E+00-1.85260E+02 1.28428E+01
 -1       302-8.63642E+00 8.63642E+00-2.02441E-11-8.32680E-12-1.76372E+00 1.76372E+00
 -1       303-1.09933E+01 1.05212E+00 2.62401E+01 1.46529E+00-2.91894E-01 4.08791E+00
 -1       304-9.59117E+00 9.59117E+00-6.83762E-12-1.72968E-12-4.10593E+01 4.10593E+01
 -1       305-1.05212E+00 1.09933E+01-2.62401E+01-1.46529E+00-4.08791E+00 2.91894E-01
 -1       306-6.18785E+00 6.18785E+00-1.50525E-11 5.73925E-12 7.71211E+01-7.71211E+01
 -1       307-7.90616E+00 7.16889E-01 1.88534E+01 1.04592E+00 1.24800E+01-1.79479E+02
 -1       308-9.71721E+00 9.71721E+00-1.96114E-11 2.54561E-13 3.80494E+01-3.80494E+01
 -1       309-7.16889E-01 7.90616E+00-1.88534E+01-1.04592E+00 1.79479E+02-1.24800E+01
 -1       310 2.74945E-02-2.74945E-02 3.06588E-12-1.32532E-11 1.10011E+02-1.10011E+02
 -1       311 2.98527E-02 2.84538E-03-6.31101E-02-7.91859E-03 1.75046E+01-2.57074E+02
 -1       312-4.16612E+00 4.16612E+00-6.30254E-12-6.16069E-12 9.44695E+01-9.44695E+01
 -1       313-2.84538E-03-2.98527E-02 6.31101E-02 7.91859E-03 2.57074E+02-1.75046E+01
 -1       314 6.15264E+00-6.15264E+00 1.11361E-11-2.03087E-13 7.93022E+01-7.93022E+01
 -1       315 7.89299E+00-7.24628E-01-1.72120E+01-1.02316E+00 1.37943E+01-1.81848E+02
 -1       316 4.20492E+00-4.20492E+00 9.77804E-12-8.52358E-12 9.59064E+01-9.59064E+01
 -1       317 7.24628E-01-7.89299E+00 1.72120E+01 1.02316E+00 1.81848E+02-1.37943E+01
 -1       318 1.24780E+01-1.24780E+01 3.62541E-13-1.17591E-11-3.35963E+00 3.35963E+00
 -1       319 1.38876E+01-4.10384E+00-2.29947E+01-2.70442E+00-4.32942E+00-6.03001E+00
 -1       320 8.05182E+00-8.05182E+00 4.07312E-12-6.65231E-12 3.67457E+01-3.67457E+01
 -1       321 4.10384E+00-1.38876E+01 2.29947E+01 2.70442E+00 6.03001E+00 4.32942E+00
 -3
    1PSTEP                        56           1           1          
    1PGM                1.000000E+00                                  
    1PGK                5.493188E+10                                  
    1PHID                         -1                                  
    1PSUBC                         0                                  
    1PMODE                        14                                  
  100CL  114 37302.02027         321                     2   14MODAL      1
 -4  ERROR       1    1
 -5  STR(%)      1    1    0    0
 -1         1 1.87360E+01
 -1         2 1.87360E+01
 -1         3 2.12900E+01
 -1         4 2.12900E+01
 -1         5 1.87360E+01
 -1         6 1.87360E+01
 -1         7 2.12900E+01
 -1         8 2.12900E+01
 -1         9 1.87360E+01
 -1        10 2.00130E+01
 -1        11 2.12900E+01
 -1        12 2.00130E+01
 -1        13 1.87360E+01
 -1        14 1.87360E+01
 -1        15 2.12900E+01
 -1        16 2.12900E+01
 -1        17 1.87360E+01
 -1        18 2.00130E+01
 -1        19 2.12900E+01
 -1        20 2.00130E+01
 -1        21 2.15228E+01
 -1        22 2.15228E+01
 -1        23 2.15228E+01
 -1        24 2.15228E+01
 -1        25 2.14064E+01
 -1        26 2.15228E+01
 -1        27 2.14064E+01
 -1        28 2.15228E+01
 -1        29 2.15228E+01
 -1        30 2.14064E+01
 -1        31 2.15228E+01
 -1        32 2.14064E+01
 -1        33 2.15228E+01
 -1        34 2.15228E+01
 -1        35 2.15228E+01
 -1        36 2.15228E+01
 -1        37 2.15228E+01
 -1        38 2.15228E+01
 -1        39 2.15228E+01
 -1        40 2.15228E+01
 -1        41 2.15228E+01
 -1        42 2.15228E+01
 -1        43 2.15228E+01
 -1        44 2.15228E+01
 -1        45 1.93536E+01
 -1        46 1.93536E+01
 -1        47 1.93536E+01
 -1        48 1.93536E+01
 -1        49 2.04382E+01
 -1        50 1.93536E+01
 -1        51 2.04382E+01
 -1        52 1.93536E+01
 -1        53 1.93536E+01
 -1        54 2.04382E+01
 -1        55 1.93536E+01
 -1        56 2.04382E+01
 -1        57 2.13170E+01
 -1        58 2.13170E+01
 -1        59 2.13170E+01
 -1        60 2.13170E+01
 -1        61 2.03353E+01
 -1        62 2.13170E+01
 -1        63 2.03353E+01
 -1        64 2.13170E+01
 -1        65 2.13170E+01
 -1        66 2.03353E+01
 -1        67 2.13170E+01
 -1        68 2.03353E+01
 -1        69 2.14641E+01
 -1        70 2.14641E+01
 -1        71 2.14641E+01
 -1        72 2.14641E+01
 -1        73 2.13905E+01
 -1        74 2.14641E+01
 -1        75 2.13905E+01
 -1        76 2.14641E+01
 -1        77 2.14641E+01
 -1        78 2.13905E+01
 -1        79 2.14641E+01
 -1        80 2.13905E+01
 -1        81 2.14641E+01
 -1        82 2.14641E+01
 -1        83 2.14641E+01
 -1        84 2.14641E+01
 -1        85 2.14641E+01
 -1        86 2.14641E+01
 -1        87 2.14641E+01
 -1        88 2.14641E+01
 -1        89 2.14641E+01
 -1        90 2.14641E+01
 -1        91 2.14641E+01
 -1        92 2.14641E+01
 -1        93 1.93246E+01
 -1        94 1.93246E+01
 -1        95 1.93246E+01
 -1        96 1.93246E+01
 -1        97 2.03943E+01
 -1        98 1.93246E+01
 -1        99 2.03943E+01
 -1       100 1.93246E+01
 -1       101 1.93246E+01
 -1       102 2.03943E+01
 -1       103 1.93246E+01
 -1       104 2.03943E+01
 -1       105 2.13866E+01
 -1       106 2.13866E+01
 -1       107 2.13866E+01
 -1       108 2.13866E+01
 -1       109 2.03556E+01
 -1       110 2.13866E+01
 -1       111 2.03556E+01
 -1       112 2.13866E+01
 -1       113 2.13866E+01
 -1       114 2.03556E+01
 -1       115 2.13866E+01
 -1       116 2.03556E+01
 -1       117 2.13866E+01
 -1       118 2.13866E+01
 -1       119 2.13866E+01
 -1       120 2.13866E+01
 -1       121 2.13866E+01
 -1       122 2.13866E+01
 -1       123 2.13866E+01
 -1       124 2.13866E+01
 -1       125 2.13866E+01
 -1       126 2.13866E+01
 -1       127 2.13866E+01
 -1       128 2.13866E+01
 -1       129 1.87360E+01
 -1       130 1.87360E+01
 -1       131 2.12900E+01
 -1       132 2.12900E+01
 -1       133 1.87360E+01
 -1       134 1.87360E+01
 -1       135 2.12900E+01
 -1       136 2.12900E+01
 -1       137 1.87360E+01
 -1       138 2.00130E+01
 -1       139 2.12900E+01
 -1       140 2.00130E+01
 -1       141 2.15228E+01
 -1       142 2.15228E+01
 -1       143 2.15228E+01
 -1       144 2.15228E+01
 -1       145 2.14064E+01
 -1       146 2.15228E+01
 -1       147 2.14064E+01
 -1       148 2.15228E+01
 -1       149 2.15228E+01
 -1       150 2.15228E+01
 -1       151 2.15228E+01
 -1       152 2.15228E+01
 -1       153 2.15228E+01
 -1       154 2.15228E+01
 -1       155 1.93536E+01
 -1       156 1.93536E+01
 -1       157 1.93536E+01
 -1       158 1.93536E+01
 -1       159 2.04382E+01
 -1       160 1.93536E+01
 -1       161 2.04382E+01
 -1       162 2.13170E+01
 -1       163 2.13170E+01
 -1       164 2.13170E+01
 -1       165 2.13170E+01
 -1       166 2.03353E+01
 -1       167 2.13170E+01
 -1       168 2.03353E+01
 -1       169 2.14641E+01
 -1       170 2.14641E+01
 -1       171 2.14641E+01
 -1       172 2.14641E+01
 -1       173 2.13905E+01
 -1       174 2.14641E+01
 -1       175 2.13905E+01
 -1       176 2.14641E+01
 -1       177 2.14641E+01
 -1       178 2.14641E+01
 -1       179 2.14641E+01
 -1       180 2.14641E+01
 -1       181 2.14641E+01
 -1       182 2.14641E+01
 -1       183 1.93246E+01
 -1       184 1.93246E+01
 -1       185 1.93246E+01
 -1       186 1.93246E+01
 -1       187 2.03943E+01
 -1       188 1.93246E+01
 -1       189 2.03943E+01
 -1       190 2.13866E+01
 -1       191 2.13866E+01
 -1       192 2.13866E+01
 -1       193 2.13866E+01
 -1       194 2.03556E+01
 -1       195 2.13866E+01
 -1       196 2.03556E+01
 -1       197 2.13866E+01
 -1       198 2.13866E+01
 -1       199 2.13866E+01
 -1       200 2.13866E+01
 -1       201 2.13866E+01
 -1       202 2.13866E+01
 -1       203 2.13866E+01
 -1       204 1.87360E+01
 -1       205 2.12900E+01
 -1       206 1.87360E+01
 -1       207 2.12900E+01
 -1       208 1.87360E+01
 -1       209 2.00130E+01
 -1       210 2.12900E+01
 -1       211 1.87360E+01
 -1       212 2.12900E+01
 -1       213 1.87360E+01
 -1       214 2.00130E+01
 -1       215 2.12900E+01
 -1       216 2.15228E+01
 -1       217 2.15228E+01
 -1       218 2.14064E+01
 -1       219 2.15228E+01
 -1       220 2.15228E+01
 -1       221 2.14064E+01
 -1       222 2.15228E+01
 -1       223 2.15228E+01
 -1       224 2.15228E+01
 -1       225 2.15228E+01
 -1       226 2.15228E+01
 -1       227 2.15228E+01
 -1       228 2.15228E+01
 -1       229 2.15228E+01
 -1       230 1.93536E+01
 -1       231 1.93536E+01
 -1       232 2.04382E+01
 -1       233 1.93536E+01
 -1       234 1.93536E+01
 -1       235 2.04382E+01
 -1       236 1.93536E+01
 -1       237 2.13170E+01
 -1       238 2.13170E+01
 -1       239 2.03353E+01
 -1       240 2.13170E+01
 -1       241 2.13170E+01
 -1       242 2.03353E+01
 -1       243 2.13170E+01
 -1       244 2.14641E+01
 -1       245 2.14641E+01
 -1       246 2.13905E+01
 -1       247 2.14641E+01
 -1       248 2.14641E+01
 -1       249 2.13905E+01
 -1       250 2.14641E+01
 -1       251 2.14641E+01
 -1       252 2.14641E+01
 -1       253 2.14641E+01
 -1       254 2.14641E+01
 -1       255 2.14641E+01
 -1       256 2.14641E+01
 -1       257 2.14641E+01
 -1       258 1.93246E+01
 -1       259 1.93246E+01
 -1       260 2.03943E+01
 -1       261 1.93246E+01
 -1       262 1.93246E+01
 -1       263 2.03943E+01
 -1       264 1.93246E+01
 -1       265 2.13866E+01
 -1       266 2.13866E+01
 -1       267 2.03556E+01
 -1       268 2.13866E+01
 -1       269 2.13866E+01
 -1       270 2.03556E+01
 -1       271 2.13866E+01
 -1       272 2.13866E+01
 -1       273 2.13866E+01
 -1       274 2.13866E+01
 -1       275 2.13866E+01
 -1       276 2.13866E+01
 -1       277 2.13866E+01
 -1       278 2.13866E+01
 -1       279 1.87360E+01
 -1       280 2.12900E+01
 -1       281 1.87360E+01
 -1       282 2.12900E+01
 -1       283 1.87360E+01
 -1       284 2.00130E+01
 -1       285 2.12900E+01
 -1       286 2.15228E+01
 -1       287 2.15228E+01
 -1       288 2.14064E+01
 -1       289 2.15228E+01
 -1       290 2.15228E+01
 -1       291 2.15228E+01
 -1       292 2.15228E+01
 -1       293 2.15228E+01
 -1       294 1.93536E+01
 -1       295 1.93536E+01
 -1       296 2.04382E+01
 -1       297 1.93536E+01
 -1       298 2.13170E+01
 -1       299 2.13170E+01
 -1       300 2.03353E+01
 -1       301 2.13170E+01
 -1       302 2.14641E+01
 -1       303 2.14641E+01
 -1       304 2.13905E+01
 -1       305 2.14641E+01
 -1       306 2.14641E+01
 -1       307 2.14641E+01
 -1       308 2.14641E+01
 -1       309 2.14641E+01
 -1       310 1.93246E+01
 -1       311 1.93246E+01
 -1       312 2.03943E+01
 -1       313 1.93246E+01
 -1       314 2.13866E+01
 -1       315 2.13866E+01
 -1       316 2.03556E+01
 -1       317 2.13866E+01
 -1       318 2.13866E+01
 -1       319 2.13866E+01
 -1       320 2.13866E+01
 -1       321 2.13866E+01
 -3
    1PSTEP                        57           1           1          
    1PGM                1.000000E+00                                  
    1PGK                5.979258E+10                                  
    1PHID                         -1                                  
    1PSUBC                         0                                  
    1PMODE                        15                                  
  100CL  115 38917.39631         321                     2   15MODAL      1
 -4  DISP        4    1
 -5  D1          1    2    1    0
 -5  D2          1    2    2    0
 -5  D3          1    2    3    0
 -5  ALL         1    2    0    0    1ALL
 -1         1 0.00000E+00 0.00000E+00 0.00000E+00
 -1         2 0.00000E+00 0.00000E+00 0.00000E+00
 -1         3-3.25521E-01 3.36620E-13 2.20389E+00
 -1         4-3.14636E-01-3.14636E-01 2.17556E+00
 -1         5 0.00000E+00 0.00000E+00 0.00000E+00
 -1         6 0.00000E+00 0.00000E+00 0.00000E+00
 -1         7 1.77636E-14 1.57652E-13 2.23315E+00
 -1         8-1.63869E-13-3.25521E-01 2.20389E+00
 -1         9 0.00000E+00 0.00000E+00 0.00000E+00
 -1        10-3.47737E-01 1.82521E-13 1.05604E+00
 -1        11-3.19538E-01-1.60039E-01 2.18829E+00
 -1        12-3.47006E-01-3.47006E-01 1.11121E+00
 -1        13 0.00000E+00 0.00000E+00 0.00000E+00
 -1        14 0.00000E+00 0.00000E+00 0.00000E+00
 -1        15-1.64380E-01 2.55795E-13 2.21718E+00
 -1        16-1.60039E-01-3.19538E-01 2.18829E+00
 -1        17 0.00000E+00 0.00000E+00 0.00000E+00
 -1        18 1.50990E-14 9.10383E-14 9.99248E-01
 -1        19-6.88338E-14-1.64380E-01 2.21718E+00
 -1        20-8.30447E-14-3.47737E-01 1.05604E+00
 -1        21-2.20911E-01 4.24327E-13 4.01889E+00
 -1        22-2.19411E-01-2.19411E-01 3.98272E+00
 -1        23 6.21725E-15 1.27121E-13 4.05321E+00
 -1        24-2.66009E-13-2.20911E-01 4.01889E+00
 -1        25-2.77831E-01 4.44533E-13 3.19844E+00
 -1        26-2.20593E-01-1.10016E-01 4.01078E+00
 -1        27-2.79784E-01-2.79784E-01 3.17046E+00
 -1        28-1.11139E-01 2.72671E-13 4.04603E+00
 -1        29-1.10016E-01-2.20593E-01 4.01078E+00
 -1        30 1.66533E-14 1.71863E-13 3.22741E+00
 -1        31-1.17351E-13-1.11139E-01 4.04603E+00
 -1        32-2.32703E-13-2.77831E-01 3.19844E+00
 -1        33-6.31460E-02 2.02505E-13 4.96256E+00
 -1        34-6.30053E-02-6.30053E-02 4.92024E+00
 -1        35-4.68514E-14-1.33227E-14 5.00468E+00
 -1        36-2.55462E-13-6.31460E-02 4.96256E+00
 -1        37-1.43342E-01 3.14415E-13 4.61969E+00
 -1        38-6.29933E-02-3.19149E-02 4.95184E+00
 -1        39-1.43631E-01-1.43631E-01 4.58032E+00
 -1        40-3.19064E-02 9.76996E-14 4.99408E+00
 -1        41-3.19149E-02-6.29933E-02 4.95184E+00
 -1        42-2.26485E-14 6.12843E-14 4.65963E+00
 -1        43-1.47937E-13-3.19064E-02 4.99408E+00
 -1        44-2.74003E-13-1.43342E-01 4.61969E+00
 -1        45 1.08089E-01-9.32587E-15 4.81215E+00
 -1        46 1.08198E-01 1.08198E-01 4.77090E+00
 -1        47-6.48370E-14-6.37823E-14 4.85333E+00
 -1        48-6.03961E-14 1.08089E-01 4.81215E+00
 -1        49 2.27847E-02 7.68274E-14 5.02808E+00
 -1        50 1.08163E-01 5.45853E-02 4.80203E+00
 -1        51 2.28122E-02 2.28122E-02 4.98466E+00
 -1        52 5.45271E-02-1.66533E-14 4.84324E+00
 -1        53 5.45853E-02 1.08163E-01 4.80203E+00
 -1        54-9.45910E-14-4.70735E-14 5.07144E+00
 -1        55-6.79456E-14 5.45271E-02 4.84324E+00
 -1        56-2.13163E-13 2.27847E-02 5.02808E+00
 -1        57 2.55345E-01-2.13607E-13 3.60317E+00
 -1        58 2.55620E-01 2.55620E-01 3.57236E+00
 -1        59 3.37508E-14-3.46390E-14 3.63398E+00
 -1        60 1.74971E-13 2.55345E-01 3.60317E+00
 -1        61 1.84399E-01-1.35003E-13 4.32883E+00
 -1        62 2.55627E-01 1.28848E-01 3.59556E+00
 -1        63 1.84605E-01 1.84605E-01 4.29154E+00
 -1        64 1.28778E-01-1.24789E-13 3.62637E+00
 -1        65 1.28848E-01 2.55627E-01 3.59556E+00
 -1        66-2.03726E-14-6.57252E-14 4.36613E+00
 -1        67 1.10578E-13 1.28778E-01 3.62637E+00
 -1        68 5.76206E-14 1.84399E-01 4.32883E+00
 -1        69 3.46440E-01-1.72307E-13 1.60104E+00
 -1        70 3.46804E-01 3.46804E-01 1.58734E+00
 -1        71 3.94407E-14 8.43769E-14 1.61473E+00
 -1        72 2.85993E-13 3.46440E-01 1.60104E+00
 -1        73 3.05303E-01-2.28928E-13 2.67705E+00
 -1        74 3.46800E-01 1.74829E-01 1.59766E+00
 -1        75 3.05653E-01 3.05653E-01 2.65396E+00
 -1        76 1.74725E-01-8.61533E-14 1.61136E+00
 -1        77 1.74829E-01 3.46800E-01 1.59766E+00
 -1        78 8.90399E-14 3.23075E-14 2.70012E+00
 -1        79 1.47216E-13 1.74725E-01 1.61136E+00
 -1        80 2.80442E-13 3.05303E-01 2.67705E+00
 -1        81 3.61272E-01-8.37108E-14-7.53446E-01
 -1        82 3.61653E-01 3.61653E-01-7.46998E-01
 -1        83 3.77476E-14 7.74936E-14-7.59890E-01
 -1        84 1.87184E-13 3.61272E-01-7.53446E-01
 -1        85 3.59048E-01-9.94760E-14 4.36001E-01
 -1        86 3.61651E-01 1.82310E-01-7.51858E-01
 -1        87 3.59457E-01 3.59457E-01 4.32245E-01
 -1        88 1.82204E-01-2.97540E-14-7.58303E-01
 -1        89 1.82310E-01 3.61651E-01-7.51858E-01
 -1        90 4.17444E-14 9.32587E-14 4.39758E-01
 -1        91 1.07025E-13 1.82204E-01-7.58303E-01
 -1        92 1.75859E-13 3.59048E-01 4.36001E-01
 -1        93 2.96589E-01 2.29816E-14-2.94212E+00
 -1        94 2.96908E-01 2.96908E-01-2.91694E+00
 -1        95-1.55431E-14 6.98330E-14-2.96728E+00
 -1        96-3.99680E-15 2.96589E-01-2.94212E+00
 -1        97 3.33756E-01-1.01252E-13-1.90100E+00
 -1        98 2.96905E-01 1.49674E-01-2.93590E+00
 -1        99 3.34138E-01 3.34138E-01-1.88461E+00
 -1       100 1.49585E-01 1.16573E-13-2.96107E+00
 -1       101 1.49674E-01 2.96905E-01-2.93590E+00
 -1       102 2.94209E-14 1.95399E-14-1.91738E+00
 -1       103-1.59872E-14 1.49585E-01-2.96107E+00
 -1       104 8.23785E-14 3.33756E-01-1.90100E+00
 -1       105 1.66652E-01 1.77636E-13-4.48321E+00
 -1       106 1.66841E-01 1.66841E-01-4.44483E+00
 -1       107-1.09912E-13 9.52571E-14-4.52157E+00
 -1       108-2.64455E-13 1.66652E-01-4.48321E+00
 -1       109 2.35020E-01 1.37668E-13-3.81958E+00
 -1       110 1.66825E-01 8.41019E-02-4.47376E+00
 -1       111 2.35281E-01 2.35281E-01-3.78666E+00
 -1       112 8.40422E-02-3.26406E-14-4.51212E+00
 -1       113 8.41019E-02 1.66825E-01-4.47376E+00
 -1       114-5.44009E-14 4.75175E-14-3.85251E+00
 -1       115-1.63425E-13 8.40422E-02-4.51212E+00
 -1       116-1.75415E-13 2.35020E-01-3.81958E+00
 -1       117 5.74523E-04 6.68354E-14-5.03790E+00
 -1       118 7.51973E-04 7.51973E-04-4.99528E+00
 -1       119 8.97060E-14 2.50910E-14-5.08063E+00
 -1       120-3.55271E-15 5.74523E-04-5.03790E+00
 -1       121 8.44914E-02 1.72196E-13-4.89752E+00
 -1       122 6.93995E-04 3.52028E-04-5.02739E+00
 -1       123 8.46095E-02 8.46095E-02-4.85549E+00
 -1       124 2.91967E-04 1.65090E-13-5.07008E+00
 -1       125 3.52028E-04 6.93995E-04-5.02739E+00
 -1       126-2.66454E-15-4.85167E-14-4.93957E+00
 -1       127 7.21645E-14 2.91967E-04-5.07008E+00
 -1       128-1.07692E-13 8.44914E-02-4.89752E+00
 -1       129 0.00000E+00 0.00000E+00 0.00000E+00
 -1       130 0.00000E+00 0.00000E+00 0.00000E+00
 -1       131 3.25521E-01-1.86517E-14 2.20389E+00
 -1       132 3.14636E-01-3.14636E-01 2.17556E+00
 -1       133 0.00000E+00 0.00000E+00 0.00000E+00
 -1       134 0.00000E+00 0.00000E+00 0.00000E+00
 -1       135 1.64380E-01 6.46150E-14 2.21718E+00
 -1       136 1.60039E-01-3.19538E-01 2.18829E+00
 -1       137 0.00000E+00 0.00000E+00 0.00000E+00
 -1       138 3.47737E-01-1.24345E-14 1.05604E+00
 -1       139 3.19538E-01-1.60039E-01 2.18829E+00
 -1       140 3.47006E-01-3.47006E-01 1.11121E+00
 -1       141 2.20911E-01-1.54654E-13 4.01889E+00
 -1       142 2.19411E-01-2.19411E-01 3.98272E+00
 -1       143 1.11139E-01-1.74305E-14 4.04603E+00
 -1       144 1.10016E-01-2.20593E-01 4.01078E+00
 -1       145 2.77831E-01-8.03801E-14 3.19844E+00
 -1       146 2.20593E-01-1.10016E-01 4.01078E+00
 -1       147 2.79784E-01-2.79784E-01 3.17046E+00
 -1       148 6.31460E-02-2.14495E-13 4.96256E+00
 -1       149 6.30053E-02-6.30053E-02 4.92024E+00
 -1       150 3.19064E-02-1.22569E-13 4.99408E+00
 -1       151 3.19149E-02-6.29933E-02 4.95184E+00
 -1       152 1.43342E-01-2.11386E-13 4.61969E+00
 -1       153 6.29933E-02-3.19149E-02 4.95184E+00
 -1       154 1.43631E-01-1.43631E-01 4.58032E+00
 -1       155-1.08089E-01-7.61613E-14 4.81215E+00
 -1       156-1.08198E-01 1.08198E-01 4.77090E+00
 -1       157-5.45271E-02-4.52971E-14 4.84324E+00
 -1       158-5.45853E-02 1.08163E-01 4.80203E+00
 -1       159-2.27847E-02-1.67255E-13 5.02808E+00
 -1       160-1.08163E-01 5.45853E-02 4.80203E+00
 -1       161-2.28122E-02 2.28122E-02 4.98466E+00
 -1       162-2.55345E-01 8.79297E-14 3.60317E+00
 -1       163-2.55620E-01 2.55620E-01 3.57236E+00
 -1       164-1.28778E-01 8.21565E-15 3.62637E+00
 -1       165-1.28848E-01 2.55627E-01 3.59556E+00
 -1       166-1.84399E-01-2.44249E-15 4.32883E+00
 -1       167-2.55627E-01 1.28848E-01 3.59556E+00
 -1       168-1.84605E-01 1.84605E-01 4.29154E+00
 -1       169-3.46440E-01 2.46470E-13 1.60104E+00
 -1       170-3.46804E-01 3.46804E-01 1.58734E+00
 -1       171-1.74725E-01 1.30562E-13 1.61136E+00
 -1       172-1.74829E-01 3.46800E-01 1.59766E+00
 -1       173-3.05303E-01 1.86073E-13 2.67705E+00
 -1       174-3.46800E-01 1.74829E-01 1.59766E+00
 -1       175-3.05653E-01 3.05653E-01 2.65396E+00
 -1       176-3.61272E-01 1.40110E-13-7.53446E-01
 -1       177-3.61653E-01 3.61653E-01-7.46998E-01
 -1       178-1.82204E-01 8.97060E-14-7.58303E-01
 -1       179-1.82310E-01 3.61651E-01-7.51858E-01
 -1       180-3.59048E-01 2.16271E-13 4.36001E-01
 -1       181-3.61651E-01 1.82310E-01-7.51858E-01
 -1       182-3.59457E-01 3.59457E-01 4.32245E-01
 -1       183-2.96589E-01-6.89533E-14-2.94212E+00
 -1       184-2.96908E-01 2.96908E-01-2.91694E+00
 -1       185-1.49585E-01 9.52571E-14-2.96107E+00
 -1       186-1.49674E-01 2.96905E-01-2.93590E+00
 -1       187-3.33756E-01 2.66454E-15-1.90100E+00
 -1       188-2.96905E-01 1.49674E-01-2.93590E+00
 -1       189-3.34138E-01 3.34138E-01-1.88461E+00
 -1       190-1.66652E-01-1.01696E-13-4.48321E+00
 -1       191-1.66841E-01 1.66841E-01-4.44483E+00
 -1       192-8.40422E-02 2.22045E-14-4.51212E+00
 -1       193-8.41019E-02 1.66825E-01-4.47376E+00
 -1       194-2.35020E-01-9.50351E-14-3.81958E+00
 -1       195-1.66825E-01 8.41019E-02-4.47376E+00
 -1       196-2.35281E-01 2.35281E-01-3.78666E+00
 -1       197-5.74523E-04-3.35287E-14-5.03790E+00
 -1       198-7.51973E-04 7.51973E-04-4.99528E+00
 -1       199-2.91967E-04-6.17284E-14-5.07008E+00
 -1       200-3.52028E-04 6.93995E-04-5.02739E+00
 -1       201-8.44914E-02 5.99520E-15-4.89752E+00
 -1       202-6.93995E-04 3.52028E-04-5.02739E+00
 -1       203-8.46095E-02 8.46095E-02-4.85549E+00
 -1       204 0.00000E+00 0.00000E+00 0.00000E+00
 -1       205-3.14636E-01 3.14636E-01 2.17556E+00
 -1       206 0.00000E+00 0.00000E+00 0.00000E+00
 -1       207 1.96732E-13 3.25521E-01 2.20389E+00
 -1       208 0.00000E+00 0.00000E+00 0.00000E+00
 -1       209-3.47006E-01 3.47006E-01 1.11121E+00
 -1       210-3.19538E-01 1.60039E-01 2.18829E+00
 -1       211 0.00000E+00 0.00000E+00 0.00000E+00
 -1       212-1.60039E-01 3.19538E-01 2.18829E+00
 -1       213 0.00000E+00 0.00000E+00 0.00000E+00
 -1       214 9.90319E-14 3.47737E-01 1.05604E+00
 -1       215 1.06581E-13 1.64380E-01 2.21718E+00
 -1       216-2.19411E-01 2.19411E-01 3.98272E+00
 -1       217 2.94875E-13 2.20911E-01 4.01889E+00
 -1       218-2.79784E-01 2.79784E-01 3.17046E+00
 -1       219-2.20593E-01 1.10016E-01 4.01078E+00
 -1       220-1.10016E-01 2.20593E-01 4.01078E+00
 -1       221 2.66148E-13 2.77831E-01 3.19844E+00
 -1       222 1.50768E-13 1.11139E-01 4.04603E+00
 -1       223-6.30053E-02 6.30053E-02 4.92024E+00
 -1       224 1.50213E-13 6.31460E-02 4.96256E+00
 -1       225-1.43631E-01 1.43631E-01 4.58032E+00
 -1       226-6.29933E-02 3.19149E-02 4.95184E+00
 -1       227-3.19149E-02 6.29933E-02 4.95184E+00
 -1       228 2.52243E-13 1.43342E-01 4.61969E+00
 -1       229 6.56142E-14 3.19064E-02 4.99408E+00
 -1       230 1.08198E-01-1.08198E-01 4.77090E+00
 -1       231-2.44249E-14-1.08089E-01 4.81215E+00
 -1       232 2.28122E-02-2.28122E-02 4.98466E+00
 -1       233 1.08163E-01-5.45853E-02 4.80203E+00
 -1       234 5.45853E-02-1.08163E-01 4.80203E+00
 -1       235 5.32907E-14-2.27847E-02 5.02808E+00
 -1       236-5.41789E-14-5.45271E-02 4.84324E+00
 -1       237 2.55620E-01-2.55620E-01 3.57236E+00
 -1       238-1.17684E-13-2.55345E-01 3.60317E+00
 -1       239 1.84605E-01-1.84605E-01 4.29154E+00
 -1       240 2.55627E-01-1.28848E-01 3.59556E+00
 -1       241 1.28848E-01-2.55627E-01 3.59556E+00
 -1       242-1.04139E-13-1.84399E-01 4.32883E+00
 -1       243-7.59393E-14-1.28778E-01 3.62637E+00
 -1       244 3.46804E-01-3.46804E-01 1.58734E+00
 -1       245-1.74527E-13-3.46440E-01 1.60104E+00
 -1       246 3.05653E-01-3.05653E-01 2.65396E+00
 -1       247 3.46800E-01-1.74829E-01 1.59766E+00
 -1       248 1.74829E-01-3.46800E-01 1.59766E+00
 -1       249-2.00284E-13-3.05303E-01 2.67705E+00
 -1       250-4.55885E-14-1.74725E-01 1.61136E+00
 -1       251 3.61653E-01-3.61653E-01-7.46998E-01
 -1       252-7.30527E-14-3.61272E-01-7.53446E-01
 -1       253 3.59457E-01-3.59457E-01 4.32245E-01
 -1       254 3.61651E-01-1.82310E-01-7.51858E-01
 -1       255 1.82310E-01-3.61651E-01-7.51858E-01
 -1       256-1.42331E-13-3.59048E-01 4.36001E-01
 -1       257-5.24025E-14-1.82204E-01-7.58303E-01
 -1       258 2.96908E-01-2.96908E-01-2.91694E+00
 -1       259 2.22045E-15-2.96589E-01-2.94212E+00
 -1       260 3.34138E-01-3.34138E-01-1.88461E+00
 -1       261 2.96905E-01-1.49674E-01-2.93590E+00
 -1       262 1.49674E-01-2.96905E-01-2.93590E+00
 -1       263-2.84217E-14-3.33756E-01-1.90100E+00
 -1       264-1.11022E-15-1.49585E-01-2.96107E+00
 -1       265 1.66841E-01-1.66841E-01-4.44483E+00
 -1       266 3.50830E-14-1.66652E-01-4.48321E+00
 -1       267 2.35281E-01-2.35281E-01-3.78666E+00
 -1       268 1.66825E-01-8.41019E-02-4.47376E+00
 -1       269 8.41019E-02-1.66825E-01-4.47376E+00
 -1       270 2.15591E-14-2.35020E-01-3.81958E+00
 -1       271-7.32747E-15-8.40422E-02-4.51212E+00
 -1       272 7.51973E-04-7.51973E-04-4.99528E+00
 -1       273 2.33202E-13-5.74523E-04-5.03790E+00
 -1       274 8.46095E-02-8.46095E-02-4.85549E+00
 -1       275 6.93995E-04-3.52028E-04-5.02739E+00
 -1       276 3.52028E-04-6.93995E-04-5.02739E+00
 -1       277 4.39648E-14-8.44914E-02-4.89752E+00
 -1       278 1.52323E-13-2.91967E-04-5.07008E+00
 -1       279 0.00000E+00 0.00000E+00 0.00000E+00
 -1       280 3.14636E-01 3.14636E-01 2.17556E+00
 -1       281 0.00000E+00 0.00000E+00 0.00000E+00
 -1       282 1.60039E-01 3.19538E-01 2.18829E+00
 -1       283 0.00000E+00 0.00000E+00 0.00000E+00
 -1       284 3.47006E-01 3.47006E-01 1.11121E+00
 -1       285 3.19538E-01 1.60039E-01 2.18829E+00
 -1       286 2.19411E-01 2.19411E-01 3.98272E+00
 -1       287 1.10016E-01 2.20593E-01 4.01078E+00
 -1       288 2.79784E-01 2.79784E-01 3.17046E+00
 -1       289 2.20593E-01 1.10016E-01 4.01078E+00
 -1       290 6.30053E-02 6.30053E-02 4.92024E+00
 -1       291 3.19149E-02 6.29933E-02 4.95184E+00
 -1       292 1.43631E-01 1.43631E-01 4.58032E+00
 -1       293 6.29933E-02 3.19149E-02 4.95184E+00
 -1       294-1.08198E-01-1.08198E-01 4.77090E+00
 -1       295-5.45853E-02-1.08163E-01 4.80203E+00
 -1       296-2.28122E-02-2.28122E-02 4.98466E+00
 -1       297-1.08163E-01-5.45853E-02 4.80203E+00
 -1       298-2.55620E-01-2.55620E-01 3.57236E+00
 -1       299-1.28848E-01-2.55627E-01 3.59556E+00
 -1       300-1.84605E-01-1.84605E-01 4.29154E+00
 -1       301-2.55627E-01-1.28848E-01 3.59556E+00
 -1       302-3.46804E-01-3.46804E-01 1.58734E+00
 -1       303-1.74829E-01-3.46800E-01 1.59766E+00
 -1       304-3.05653E-01-3.05653E-01 2.65396E+00
 -1       305-3.46800E-01-1.74829E-01 1.59766E+00
 -1       306-3.61653E-01-3.61653E-01-7.46998E-01
 -1       307-1.82310E-01-3.61651E-01-7.51858E-01
 -1       308-3.59457E-01-3.59457E-01 4.32245E-01
 -1       309-3.61651E-01-1.82310E-01-7.51858E-01
 -1       310-2.96908E-01-2.96908E-01-2.91694E+00
 -1       311-1.49674E-01-2.96905E-01-2.93590E+00
 -1       312-3.34138E-01-3.34138E-01-1.88461E+00
 -1       313-2.96905E-01-1.49674E-01-2.93590E+00
 -1       314-1.66841E-01-1.66841E-01-4.44483E+00
 -1       315-8.41019E-02-1.66825E-01-4.47376E+00
 -1       316-2.35281E-01-2.35281E-01-3.78666E+00
 -1       317-1.66825E-01-8.41019E-02-4.47376E+00
 -1       318-7.51973E-04-7.51973E-04-4.99528E+00
 -1       319-3.52028E-04-6.93995E-04-5.02739E+00
 -1       320-8.46095E-02-8.46095E-02-4.85549E+00
 -1       321-6.93995E-04-3.52028E-04-5.02739E+00
 -3
    1PSTEP                        58           1           1          
    1PGM                1.000000E+00                                  
    1PGK                5.979258E+10                                  
    1PHID                         -1                                  
    1PSUBC                         0                                  
    1PMODE                        15                                  
  100CL  115 38917.39631         321                     2   15MODAL      1
 -4  STRESS      6    1
 -5  SXX         1    4    1    1
 -5  SYY         1    4    2    2
 -5  SZZ         1    4    3    3
 -5  SXY         1    4    1    2
 -5  SYZ         1    4    2    3
 -5  SZX         1    4    3    1
 -1         1 2.74930E+13 2.74930E+13 6.41488E+13-2.20120E+06-8.66967E+12-8.66967E+12
 -1         2 2.44761E+13 2.44761E+13 5.71092E+13 1.08480E-03 3.17681E+00-8.60537E+12
 -1         3 1.64092E+12 1.43173E+12 4.87028E+13-6.89728E-01 3.89862E+00 1.63518E+12
 -1         4 1.23728E+12 1.23728E+12 4.54108E+13 2.81809E+11 1.60710E+12 1.60710E+12
 -1         5 2.44761E+13 2.44761E+13 5.71092E+13-5.62191E-04-8.60537E+12-1.35884E+00
 -1         6 2.13695E+13 2.13695E+13 4.98605E+13 1.68359E-03 1.67203E+00 3.47871E-01
 -1         7 2.62171E+12 2.62171E+12 5.25955E+13 5.53309E-01 1.06148E+00-2.53845E-01
 -1         8 1.43173E+12 1.64092E+12 4.87028E+13-2.97455E-01 1.63518E+12-2.51569E+00
 -1         9 2.59676E+13 2.59676E+13 6.05928E+13 9.47158E+05-4.35686E+12-8.63323E+12
 -1        10-1.31637E+12-1.57318E+12 4.54172E+13-8.47702E-02 3.04224E+00-1.66872E+12
 -1        11 1.53030E+12 1.40823E+12 4.72148E+13 2.28496E+11 5.27020E+11 1.61773E+12
 -1        12-1.22999E+12-1.22999E+12 4.49511E+13-1.13112E+10-1.60371E+12-1.60371E+12
 -1        13 2.59676E+13 2.59676E+13 6.05928E+13 9.47158E+05-8.63323E+12-4.35686E+12
 -1        14 2.29070E+13 2.29070E+13 5.34515E+13-8.32081E-05 2.49225E+00-4.31582E+12
 -1        15 2.20512E+12 2.11799E+12 5.08074E+13 9.12018E-02 2.19678E+00 5.35384E+11
 -1        16 1.40823E+12 1.53030E+12 4.72148E+13 2.28496E+11 1.61773E+12 5.27020E+11
 -1        17 2.29070E+13 2.29070E+13 5.34515E+13 2.41995E-04-4.31582E+12-4.69976E-01
 -1        18-1.29246E+12-1.29246E+12 4.61229E+13 4.01505E-01 1.09113E+00-3.40271E-02
 -1        19 2.11799E+12 2.20512E+12 5.08074E+13 2.48325E-01 5.35384E+11-1.05344E+00
 -1        20-1.57318E+12-1.31637E+12 4.54172E+13-2.53700E-01-1.66872E+12-2.00708E+00
 -1        21 4.47545E+10-3.52745E+10 3.07280E+13 2.09894E-01-4.58485E-01-8.66929E+10
 -1        22-8.59725E+10-8.59725E+10 3.03418E+13 1.04236E+11-4.54871E+10-4.54871E+10
 -1        23-1.48988E+11-1.48988E+11 3.09617E+13 5.63447E-01-4.56715E-01-1.39162E-01
 -1        24-3.52745E+10 4.47545E+10 3.07280E+13-5.29645E-01-8.66929E+10-4.35066E-03
 -1        25-3.84683E+11-7.92472E+11 3.77637E+13-8.69923E-02 1.94313E+00 9.75161E+10
 -1        26 2.69354E+10 8.62050E+08 3.06950E+13 5.63227E+10 1.67241E+10-6.81329E+10
 -1        27-2.13766E+11-2.13766E+11 3.78241E+13-7.01571E+10 4.13061E+10 4.13061E+10
 -1        28 8.85157E+09-4.51041E+10 3.10037E+13 3.66634E-01-5.19657E-01 7.28334E+09
 -1        29 8.62050E+08 2.69354E+10 3.06950E+13 5.63227E+10-6.81329E+10 1.67241E+10
 -1        30-7.61467E+11-7.61467E+11 3.77663E+13 7.17949E-01 3.57758E-01-2.21558E-01
 -1        31-4.51041E+10 8.85157E+09 3.10037E+13 1.56058E-01 7.28334E+09-1.21185E-01
 -1        32-7.92472E+11-3.84683E+11 3.77637E+13-3.48103E-01 9.75161E+10-1.32574E+00
 -1        33 2.89034E+10-6.29057E+10 8.81267E+12-5.61379E-01-1.93156E+00-1.19063E+09
 -1        34 6.72717E+10 6.72717E+10 8.74652E+12-6.10052E+09 7.40061E+09 7.40061E+09
 -1        35-7.65580E+10-7.65580E+10 8.84816E+12 1.26575E-01-7.69026E-02-6.91294E-01
 -1        36-6.29057E+10 2.89034E+10 8.81267E+12 7.25300E-01-1.19063E+09 9.20332E-01
 -1        37-7.17093E+10-1.93461E+11 1.97385E+13-4.69574E-01-1.23339E+00-3.14565E+10
 -1        38 5.59761E+10 7.40979E+09 8.78988E+12-5.25598E+08 2.45907E+09 4.68055E+09
 -1        39-1.25778E+11-1.25778E+11 1.96134E+13 1.32359E+10-3.23260E+10-3.23260E+10
 -1        40-1.87421E+10-6.19849E+10 8.84037E+12-3.00367E-01-8.19813E-01 1.70573E+09
 -1        41 7.40979E+09 5.59761E+10 8.78988E+12-5.25598E+08 4.68055E+09 2.45907E+09
 -1        42-2.14424E+11-2.14424E+11 1.98534E+13 2.21724E-01-1.29665E-01-1.29540E-01
 -1        43-6.19849E+10-1.87421E+10 8.84037E+12 5.13284E-01 1.70573E+09-1.20438E-01
 -1        44-1.93461E+11-7.17093E+10 1.97385E+13 2.52514E-02-3.14565E+10 7.04023E-01
 -1        45-3.76785E+10 9.10506E+10-1.50783E+13-6.12495E-01-2.03721E+00-1.89660E+10
 -1        46-4.76618E+10-4.76618E+10-1.49860E+13 1.00830E+09-1.85510E+10-1.85510E+10
 -1        47 9.94718E+10 9.94718E+10-1.51700E+13 2.30109E-01 7.15885E-01 1.11677E+00
 -1        48 9.10506E+10-3.76785E+10-1.50783E+13-1.52108E+00-1.89660E+10 3.57559E+00
 -1        49 5.43486E+09 2.07513E+10-3.15087E+12-1.02948E+00-1.80310E+00 5.74048E+09
 -1        50-5.76080E+10 6.12886E+09-1.50704E+13 2.07151E+09 2.88296E+09-1.83200E+10
 -1        51 2.12174E+10 2.12174E+10-3.12362E+12-5.68963E+09 4.51002E+09 4.51002E+09
 -1        52 1.52240E+10 8.02163E+10-1.51627E+13 5.76906E-01-3.93714E-01 2.84019E+09
 -1        53 6.12886E+09-5.76080E+10-1.50704E+13 2.07151E+09-1.83200E+10 2.88296E+09
 -1        54 3.07102E+10 3.07102E+10-3.16014E+12-1.73898E-01 4.35807E-01-9.64851E-02
 -1        55 8.02163E+10 1.52240E+10-1.51627E+13-5.54506E-01 2.84019E+09 2.23162E+00
 -1        56 2.07513E+10 5.43486E+09-3.15087E+12-9.87981E-01 5.74048E+09 2.38380E+00
 -1        57-9.08172E+10 1.94990E+11-3.56257E+13 1.04831E+00-1.12101E+00-1.05059E+10
 -1        58-8.37016E+10-8.37016E+10-3.53998E+13-9.72957E+09-9.51109E+09-9.51109E+09
 -1        59 2.30650E+11 2.30650E+11-3.58277E+13 1.79937E+00 1.04338E+00 1.21228E+00
 -1        60 1.94990E+11-9.08172E+10-3.56257E+13 1.65484E+00-1.05059E+10 3.20071E+00
 -1        61 1.45795E+11 3.53519E+11-2.52400E+13 1.41498E-01-1.71266E+00-4.00725E+09
 -1        62-1.21695E+11 1.65511E+10-3.56117E+13 9.21975E+08 1.93455E+09-9.33159E+09
 -1        63 1.43482E+11 1.43482E+11-2.50845E+13-3.90475E+09-2.90854E+09-2.90854E+09
 -1        64 3.08784E+10 1.78439E+11-3.58255E+13 1.14907E+00-7.16603E-02 1.75532E+09
 -1        65 1.65511E+10-1.21695E+11-3.56117E+13 9.21975E+08-9.33159E+09 1.93455E+09
 -1        66 3.77316E+11 3.77316E+11-2.53813E+13 1.16256E+00 7.22942E-01 1.02479E+00
 -1        67 1.78439E+11 3.08784E+10-3.58255E+13 1.65213E+00 1.75532E+09 2.00634E+00
 -1        68 3.53519E+11 1.45795E+11-2.52400E+13-3.45457E-01-4.00725E+09 2.75025E+00
 -1        69-1.22722E+11 2.67857E+11-4.83341E+13 5.87681E-01 1.78245E+00-5.23856E+09
 -1        70-1.18384E+11-1.18384E+11-4.80281E+13-1.11310E+10-5.01883E+09-5.01883E+09
 -1        71 3.14317E+11 3.14317E+11-4.86091E+13-1.11112E+00 9.67482E-01-8.07117E-01
 -1        72 2.67857E+11-1.22722E+11-4.83341E+13 7.24726E-02-5.23856E+09-1.98123E+00
 -1        73 2.35265E+11 5.74429E+11-4.18040E+13 6.70264E-01 4.32051E-01-8.02684E+08
 -1        74-1.67632E+11 2.19349E+10-4.83142E+13 1.83335E+09 8.92844E+08-4.90739E+09
 -1        75 2.40019E+11 2.40019E+11-4.15436E+13-9.45844E+09-4.64527E+08-4.64527E+08
 -1        76 4.30177E+10 2.44030E+11-4.86046E+13-1.78603E+00 9.91183E-01 8.30480E+08
 -1        77 2.19349E+10-1.67632E+11-4.83142E+13 1.83335E+09-4.90739E+09 8.92844E+08
 -1        78 6.16846E+11 6.16846E+11-4.20361E+13 7.43845E-01 1.07418E+00-2.62992E-01
 -1        79 2.44030E+11 4.30177E+10-4.86046E+13-3.21421E-01 8.30480E+08-1.30885E+00
 -1        80 5.74429E+11 2.35265E+11-4.18040E+13 1.28273E-01-8.02684E+08 1.37695E+00
 -1        81-1.28055E+11 2.78472E+11-5.04037E+13 8.21199E-02 1.99358E-01 2.45320E+09
 -1        82-1.22347E+11-1.22347E+11-5.00846E+13-1.20106E+10 2.33841E+09 2.33841E+09
 -1        83 3.27312E+11 3.27312E+11-5.06902E+13 9.95130E-01-1.24799E+00-1.51851E-01
 -1        84 2.78472E+11-1.28055E+11-5.04037E+13 2.19447E+00 2.45320E+09-8.90183E-01
 -1        85 2.78074E+11 6.77792E+11-4.91599E+13 3.44805E-01 1.26232E+00-2.92541E+08
 -1        86-1.74199E+11 2.29828E+10-5.03831E+13 1.79051E+09-4.23306E+08 2.29442E+09
 -1        87 2.81726E+11 2.81726E+11-4.88544E+13-1.04047E+10-1.91958E+08-1.91958E+08
 -1        88 4.45855E+10 2.53931E+11-5.06858E+13-7.22027E-01-5.16837E-02-3.94564E+08
 -1        89 2.29828E+10-1.74199E+11-5.03831E+13 1.79051E+09 2.29442E+09-4.23306E+08
 -1        90 7.26858E+11 7.26858E+11-4.94335E+13-3.51791E-01 5.62367E-02-1.36009E-01
 -1        91 2.53931E+11 4.45855E+10-5.06858E+13 1.48433E+00-3.94564E+08-5.10694E-01
 -1        92 6.77792E+11 2.78074E+11-4.91599E+13-7.52766E-01-2.92541E+08-1.52563E+00
 -1        93-1.05517E+11 2.29157E+11-4.13794E+13-1.16892E+00 3.61363E+00 9.07849E+09
 -1        94-1.00788E+11-1.00788E+11-4.11175E+13-9.92397E+09 8.34063E+09 8.34063E+09
 -1        95 2.69472E+11 2.69472E+11-4.16145E+13-4.87852E-01-2.40470E-01-3.71921E-01
 -1        96 2.29157E+11-1.05517E+11-4.13794E+13-1.02355E+00 9.07849E+09-2.57763E+00
 -1        97 2.57782E+11 6.29410E+11-4.56982E+13-5.55063E-01 1.91137E+00 7.83491E+08
 -1        98-1.43361E+11 1.89187E+10-4.13627E+13 1.54425E+09-1.63164E+09 8.21144E+09
 -1        99 2.61750E+11 2.61750E+11-4.54140E+13-9.93931E+09 4.89278E+08 4.89278E+08
 -1       100 3.67475E+10 2.09142E+11-4.16111E+13 1.12903E+00 7.98161E-01-1.46803E+09
 -1       101 1.89187E+10-1.43361E+11-4.13627E+13 1.54425E+09 8.21144E+09-1.63164E+09
 -1       102 6.75440E+11 6.75440E+11-4.59522E+13-1.82106E-01-3.57172E-01-5.25342E-01
 -1       103 2.09142E+11 3.67475E+10-4.16111E+13-3.18619E-01-1.46803E+09-9.44860E-01
 -1       104 6.29410E+11 2.57782E+11-4.56982E+13-4.43230E-01 7.83491E+08-1.89971E+00
 -1       105-5.47841E+10 1.31963E+11-2.32438E+13 1.06401E+01 3.83609E-01 1.21861E+10
 -1       106-5.31228E+10-5.31228E+10-2.30993E+13-4.02046E+09 1.12786E+10 1.12786E+10
 -1       107 1.53473E+11 1.53473E+11-2.33734E+13-6.65821E+00-1.78771E+00-3.85217E-01
 -1       108 1.31963E+11-5.47841E+10-2.32438E+13 1.52053E+00 1.21861E+10 5.72141E-01
 -1       109 1.83007E+11 4.43919E+11-3.21766E+13 3.91111E+00 2.05943E+00 2.49542E+09
 -1       110-7.63152E+10 1.45216E+10-2.32342E+13 1.49208E+09-3.95724E+09 1.11107E+10
 -1       111 1.85303E+11 1.85303E+11-3.19762E+13-6.77073E+09 1.86124E+09 1.86124E+09
 -1       112 2.43548E+10 1.20265E+11-2.33714E+13-3.23322E-01-3.06382E-01-3.62776E+09
 -1       113 1.45216E+10-7.63152E+10-2.32342E+13 1.49208E+09 1.11107E+10-3.95724E+09
 -1       114 4.75616E+11 4.75616E+11-3.23564E+13-3.54422E+00-1.52135E-01-8.45777E-01
 -1       115 1.20265E+11 2.43548E+10-2.33714E+13-8.88869E-02-3.62776E+09 3.87441E-01
 -1       116 4.43919E+11 1.83007E+11-3.21766E+13-4.56670E-01 2.49542E+09-2.23000E+00
 -1       117-3.52284E+10-3.19839E+10-1.62721E+11-5.69731E+00-2.33087E+00 1.91159E+10
 -1       118-3.72745E+10-3.72745E+10-2.05146E+11 1.75950E+09 1.84957E+10 1.84957E+10
 -1       119-1.50744E+10-1.50744E+10-1.17719E+11 5.83771E+00 2.05244E+00 4.72070E-01
 -1       120-3.19839E+10-3.52284E+10-1.62721E+11-4.67372E+00 1.91159E+10 2.86879E-01
 -1       121 5.72795E+10 1.50163E+11-1.15867E+13 5.66092E+00-7.94075E-01 1.41113E+09
 -1       122-4.73790E+10-4.67501E+10-2.14271E+11 2.84346E+09-1.13746E+09 1.86083E+10
 -1       123 5.87638E+10 5.87638E+10-1.15247E+13-3.24297E+09 1.06339E+09 1.06339E+09
 -1       124-3.74988E+10-3.48832E+10-1.71086E+11 7.96379E-01 1.87423E+00-3.16532E+08
 -1       125-4.67501E+10-4.73790E+10-2.14271E+11 2.84346E+09 1.86083E+10-1.13746E+09
 -1       126 1.67573E+11 1.67573E+11-1.16403E+13 3.45862E-01-1.01973E+00 4.48710E-01
 -1       127-3.48832E+10-3.74988E+10-1.71086E+11 6.23991E-01-3.16532E+08 1.18868E-01
 -1       128 1.50163E+11 5.72795E+10-1.15867E+13-1.80588E+00 1.41113E+09 1.20948E+00
 -1       129 2.74930E+13 2.74930E+13 6.41488E+13 2.20120E+06-8.66967E+12 8.66967E+12
 -1       130 2.44761E+13 2.44761E+13 5.71092E+13-6.86646E-04-2.44650E-01 8.60537E+12
 -1       131 1.64092E+12 1.43173E+12 4.87028E+13 2.41302E-01-1.63510E+00-1.63518E+12
 -1       132 1.23728E+12 1.23728E+12 4.54108E+13-2.81809E+11 1.60710E+12-1.60710E+12
 -1       133 2.59676E+13 2.59676E+13 6.05928E+13-9.47158E+05-8.63323E+12 4.35686E+12
 -1       134 2.29070E+13 2.29070E+13 5.34515E+13 8.05855E-04 6.67974E-01 4.31582E+12
 -1       135 2.20512E+12 2.11799E+12 5.08074E+13 2.46437E-01-4.24805E-02-5.35384E+11
 -1       136 1.40823E+12 1.53030E+12 4.72148E+13-2.28496E+11 1.61773E+12-5.27020E+11
 -1       137 2.59676E+13 2.59676E+13 6.05928E+13-9.47158E+05-4.35686E+12 8.63323E+12
 -1       138-1.31637E+12-1.57318E+12 4.54172E+13 2.40410E-01-1.06409E+00 1.66872E+12
 -1       139 1.53030E+12 1.40823E+12 4.72148E+13-2.28496E+11 5.27020E+11-1.61773E+12
 -1       140-1.22999E+12-1.22999E+12 4.49511E+13 1.13112E+10-1.60371E+12 1.60371E+12
 -1       141 4.47545E+10-3.52745E+10 3.07280E+13 1.32339E-01-6.97781E-01 8.66929E+10
 -1       142-8.59725E+10-8.59725E+10 3.03418E+13-1.04236E+11-4.54871E+10 4.54871E+10
 -1       143 8.85157E+09-4.51041E+10 3.10037E+13 3.66451E-01-6.26972E-01-7.28334E+09
 -1       144 8.62050E+08 2.69354E+10 3.06950E+13-5.63227E+10-6.81329E+10-1.67241E+10
 -1       145-3.84683E+11-7.92472E+11 3.77637E+13 2.23001E-01-1.42134E+00-9.75161E+10
 -1       146 2.69354E+10 8.62050E+08 3.06950E+13-5.63227E+10 1.67241E+10 6.81329E+10
 -1       147-2.13766E+11-2.13766E+11 3.78241E+13 7.01571E+10 4.13061E+10-4.13061E+10
 -1       148 2.89034E+10-6.29057E+10 8.81267E+12-1.54022E+00 1.66983E+00 1.19063E+09
 -1       149 6.72717E+10 6.72717E+10 8.74652E+12 6.10052E+09 7.40061E+09-7.40061E+09
 -1       150-1.87421E+10-6.19849E+10 8.84037E+12-6.69006E-01 8.45178E-01-1.70573E+09
 -1       151 7.40979E+09 5.59761E+10 8.78988E+12 5.25598E+08 4.68055E+09-2.45907E+09
 -1       152-7.17093E+10-1.93461E+11 1.97385E+13-5.40251E-01 7.71454E-01 3.14565E+10
 -1       153 5.59761E+10 7.40979E+09 8.78988E+12 5.25598E+08 2.45907E+09-4.68055E+09
 -1       154-1.25778E+11-1.25778E+11 1.96134E+13-1.32359E+10-3.23260E+10 3.23260E+10
 -1       155-3.76785E+10 9.10506E+10-1.50783E+13 2.01107E+00 2.66106E+00 1.89660E+10
 -1       156-4.76618E+10-4.76618E+10-1.49860E+13-1.00830E+09-1.85510E+10 1.85510E+10
 -1       157 1.52240E+10 8.02163E+10-1.51627E+13 2.04486E-01 1.47438E+00-2.84019E+09
 -1       158 6.12886E+09-5.76080E+10-1.50704E+13-2.07151E+09-1.83200E+10-2.88296E+09
 -1       159 5.43486E+09 2.07513E+10-3.15087E+12 3.69133E-01 2.50450E+00-5.74048E+09
 -1       160-5.76080E+10 6.12886E+09-1.50704E+13-2.07151E+09 2.88296E+09 1.83200E+10
 -1       161 2.12174E+10 2.12174E+10-3.12362E+12 5.68963E+09 4.51002E+09-4.51002E+09
 -1       162-9.08172E+10 1.94990E+11-3.56257E+13 9.65270E-01 2.67216E+00 1.05059E+10
 -1       163-8.37016E+10-8.37016E+10-3.53998E+13 9.72957E+09-9.51109E+09 9.51109E+09
 -1       164 3.08784E+10 1.78439E+11-3.58255E+13 1.96176E+00 1.39783E+00-1.75532E+09
 -1       165 1.65511E+10-1.21695E+11-3.56117E+13-9.21975E+08-9.33159E+09-1.93455E+09
 -1       166 1.45795E+11 3.53519E+11-2.52400E+13 1.48917E+00 2.52466E+00 4.00725E+09
 -1       167-1.21695E+11 1.65511E+10-3.56117E+13-9.21975E+08 1.93455E+09 9.33159E+09
 -1       168 1.43482E+11 1.43482E+11-2.50845E+13 3.90475E+09-2.90854E+09 2.90854E+09
 -1       169-1.22722E+11 2.67857E+11-4.83341E+13-1.18722E+00-4.53003E-01 5.23856E+09
 -1       170-1.18384E+11-1.18384E+11-4.80281E+13 1.11310E+10-5.01883E+09 5.01883E+09
 -1       171 4.30177E+10 2.44030E+11-4.86046E+13 7.01127E-02 2.77069E-01-8.30480E+08
 -1       172 2.19349E+10-1.67632E+11-4.83142E+13-1.83335E+09-4.90739E+09-8.92844E+08
 -1       173 2.35265E+11 5.74429E+11-4.18040E+13 6.19594E-01 1.27708E+00 8.02684E+08
 -1       174-1.67632E+11 2.19349E+10-4.83142E+13-1.83335E+09 8.92844E+08 4.90739E+09
 -1       175 2.40019E+11 2.40019E+11-4.15436E+13 9.45844E+09-4.64527E+08 4.64527E+08
 -1       176-1.28055E+11 2.78472E+11-5.04037E+13-5.64673E-01-3.16470E+00-2.45320E+09
 -1       177-1.22347E+11-1.22347E+11-5.00846E+13 1.20106E+10 2.33841E+09-2.33841E+09
 -1       178 4.45855E+10 2.53931E+11-5.06858E+13 3.39595E-01-1.44959E+00 3.94564E+08
 -1       179 2.29828E+10-1.74199E+11-5.03831E+13-1.79051E+09 2.29442E+09 4.23306E+08
 -1       180 2.78074E+11 6.77792E+11-4.91599E+13-7.68826E-01-1.28596E+00 2.92541E+08
 -1       181-1.74199E+11 2.29828E+10-5.03831E+13-1.79051E+09-4.23306E+08-2.29442E+09
 -1       182 2.81726E+11 2.81726E+11-4.88544E+13 1.04047E+10-1.91958E+08 1.91958E+08
 -1       183-1.05517E+11 2.29157E+11-4.13794E+13 8.03483E+00-1.98699E+00-9.07849E+09
 -1       184-1.00788E+11-1.00788E+11-4.11175E+13 9.92397E+09 8.34063E+09-8.34063E+09
 -1       185 3.67475E+10 2.09142E+11-4.16111E+13 1.24252E+00-9.34318E-01 1.46803E+09
 -1       186 1.89187E+10-1.43361E+11-4.13627E+13-1.54425E+09 8.21144E+09 1.63164E+09
 -1       187 2.57782E+11 6.29410E+11-4.56982E+13 3.44849E+00-3.03918E+00-7.83491E+08
 -1       188-1.43361E+11 1.89187E+10-4.13627E+13-1.54425E+09-1.63164E+09-8.21144E+09
 -1       189 2.61750E+11 2.61750E+11-4.54140E+13 9.93931E+09 4.89278E+08-4.89278E+08
 -1       190-5.47841E+10 1.31963E+11-2.32438E+13 2.13681E+00 4.56400E-02-1.21861E+10
 -1       191-5.31228E+10-5.31228E+10-2.30993E+13 4.02046E+09 1.12786E+10-1.12786E+10
 -1       192 2.43548E+10 1.20265E+11-2.33714E+13 8.10028E-01-1.51156E+00 3.62776E+09
 -1       193 1.45216E+10-7.63152E+10-2.32342E+13-1.49208E+09 1.11107E+10 3.95724E+09
 -1       194 1.83007E+11 4.43919E+11-3.21766E+13 4.86807E+00-1.62098E+00-2.49542E+09
 -1       195-7.63152E+10 1.45216E+10-2.32342E+13-1.49208E+09-3.95724E+09-1.11107E+10
 -1       196 1.85303E+11 1.85303E+11-3.19762E+13 6.77073E+09 1.86124E+09-1.86124E+09
 -1       197-3.52284E+10-3.19839E+10-1.62721E+11-4.34773E+00-1.21259E+00-1.91159E+10
 -1       198-3.72745E+10-3.72745E+10-2.05146E+11-1.75950E+09 1.84957E+10-1.84957E+10
 -1       199-3.74988E+10-3.48832E+10-1.71086E+11-9.05393E-01-9.73997E-02 3.16532E+08
 -1       200-4.67501E+10-4.73790E+10-2.14271E+11-2.84346E+09 1.86083E+10 1.13746E+09
 -1       201 5.72795E+10 1.50163E+11-1.15867E+13-3.36541E+00 4.59700E-01-1.41113E+09
 -1       202-4.73790E+10-4.67501E+10-2.14271E+11-2.84346E+09-1.13746E+09-1.86083E+10
 -1       203 5.87638E+10 5.87638E+10-1.15247E+13 3.24297E+09 1.06339E+09-1.06339E+09
 -1       204 2.74930E+13 2.74930E+13 6.41488E+13 2.20120E+06 8.66967E+12-8.66967E+12
 -1       205 1.23728E+12 1.23728E+12 4.54108E+13-2.81809E+11-1.60710E+12 1.60710E+12
 -1       206 2.44761E+13 2.44761E+13 5.71092E+13 3.40557E-03 8.60537E+12 1.61557E+00
 -1       207 1.43173E+12 1.64092E+12 4.87028E+13-3.24173E-02-1.63518E+12 2.24277E+00
 -1       208 2.59676E+13 2.59676E+13 6.05928E+13-9.47158E+05 4.35686E+12-8.63323E+12
 -1       209-1.22999E+12-1.22999E+12 4.49511E+13 1.13112E+10 1.60371E+12-1.60371E+12
 -1       210 1.53030E+12 1.40823E+12 4.72148E+13-2.28496E+11-5.27020E+11 1.61773E+12
 -1       211 2.59676E+13 2.59676E+13 6.05928E+13-9.47158E+05 8.63323E+12-4.35686E+12
 -1       212 1.40823E+12 1.53030E+12 4.72148E+13-2.28496E+11-1.61773E+12 5.27020E+11
 -1       213 2.29070E+13 2.29070E+13 5.34515E+13 7.06673E-04 4.31582E+12 9.73658E-01
 -1       214-1.57318E+12-1.31637E+12 4.54172E+13-1.51501E-02 1.66872E+12 1.87738E+00
 -1       215 2.11799E+12 2.20512E+12 5.08074E+13 2.11540E-01-5.35384E+11 6.86646E-01
 -1       216-8.59725E+10-8.59725E+10 3.03418E+13-1.04236E+11 4.54871E+10-4.54871E+10
 -1       217-3.52745E+10 4.47545E+10 3.07280E+13 1.65764E-01 8.66929E+10-1.06894E-01
 -1       218-2.13766E+11-2.13766E+11 3.78241E+13 7.01571E+10-4.13061E+10 4.13061E+10
 -1       219 2.69354E+10 8.62050E+08 3.06950E+13-5.63227E+10-1.67241E+10-6.81329E+10
 -1       220 8.62050E+08 2.69354E+10 3.06950E+13-5.63227E+10 6.81329E+10 1.67241E+10
 -1       221-7.92472E+11-3.84683E+11 3.77637E+13 1.41600E-01-9.75161E+10 1.09897E+00
 -1       222-4.51041E+10 8.85157E+09 3.10037E+13 1.67036E-01-7.28334E+09-1.24180E-01
 -1       223 6.72717E+10 6.72717E+10 8.74652E+12 6.10052E+09-7.40061E+09 7.40061E+09
 -1       224-6.29057E+10 2.89034E+10 8.81267E+12 1.22362E+00 1.19063E+09-2.24116E+00
 -1       225-1.25778E+11-1.25778E+11 1.96134E+13-1.32359E+10 3.23260E+10-3.23260E+10
 -1       226 5.59761E+10 7.40979E+09 8.78988E+12 5.25598E+08-2.45907E+09 4.68055E+09
 -1       227 7.40979E+09 5.59761E+10 8.78988E+12 5.25598E+08-4.68055E+09 2.45907E+09
 -1       228-1.93461E+11-7.17093E+10 1.97385E+13 6.12392E-01 3.14565E+10-1.14955E+00
 -1       229-6.19849E+10-1.87421E+10 8.84037E+12 4.19244E-01-1.70573E+09-1.24799E+00
 -1       230-4.76618E+10-4.76618E+10-1.49860E+13-1.00830E+09 1.85510E+10-1.85510E+10
 -1       231 9.10506E+10-3.76785E+10-1.50783E+13-6.33159E-01 1.89660E+10-1.84597E+00
 -1       232 2.12174E+10 2.12174E+10-3.12362E+12 5.68963E+09-4.51002E+09 4.51002E+09
 -1       233-5.76080E+10 6.12886E+09-1.50704E+13-2.07151E+09-2.88296E+09-1.83200E+10
 -1       234 6.12886E+09-5.76080E+10-1.50704E+13-2.07151E+09 1.83200E+10 2.88296E+09
 -1       235 2.07513E+10 5.43486E+09-3.15087E+12-1.71618E-01-5.74048E+09-1.73710E+00
 -1       236 8.02163E+10 1.52240E+10-1.51627E+13-7.72622E-02-2.84019E+09-3.88031E-01
 -1       237-8.37016E+10-8.37016E+10-3.53998E+13 9.72957E+09 9.51109E+09-9.51109E+09
 -1       238 1.94990E+11-9.08172E+10-3.56257E+13-3.53358E+00 1.05059E+10-2.03815E+00
 -1       239 1.43482E+11 1.43482E+11-2.50845E+13 3.90475E+09 2.90854E+09-2.90854E+09
 -1       240-1.21695E+11 1.65511E+10-3.56117E+13-9.21975E+08-1.93455E+09-9.33159E+09
 -1       241 1.65511E+10-1.21695E+11-3.56117E+13-9.21975E+08 9.33159E+09 1.93455E+09
 -1       242 3.53519E+11 1.45795E+11-2.52400E+13-1.05964E+00 4.00725E+09-1.69906E+00
 -1       243 1.78439E+11 3.08784E+10-3.58255E+13-4.99118E-01-1.75532E+09-9.87332E-02
 -1       244-1.18384E+11-1.18384E+11-4.80281E+13 1.11310E+10 5.01883E+09-5.01883E+09
 -1       245 2.67857E+11-1.22722E+11-4.83341E+13 2.32487E+00 5.23856E+09 1.22923E+00
 -1       246 2.40019E+11 2.40019E+11-4.15436E+13 9.45844E+09 4.64527E+08-4.64527E+08
 -1       247-1.67632E+11 2.19349E+10-4.83142E+13-1.83335E+09-8.92844E+08-4.90739E+09
 -1       248 2.19349E+10-1.67632E+11-4.83142E+13-1.83335E+09 4.90739E+09 8.92844E+08
 -1       249 5.74429E+11 2.35265E+11-4.18040E+13 1.11564E+00 8.02684E+08-9.04020E-01
 -1       250 2.44030E+11 4.30177E+10-4.86046E+13-3.91302E-01-8.30480E+08 2.50046E-01
 -1       251-1.22347E+11-1.22347E+11-5.00846E+13 1.20106E+10-2.33841E+09 2.33841E+09
 -1       252 2.78472E+11-1.28055E+11-5.04037E+13-3.85696E+00-2.45320E+09 1.23216E+00
 -1       253 2.81726E+11 2.81726E+11-4.88544E+13 1.04047E+10 1.91958E+08-1.91958E+08
 -1       254-1.74199E+11 2.29828E+10-5.03831E+13-1.79051E+09 4.23306E+08 2.29442E+09
 -1       255 2.29828E+10-1.74199E+11-5.03831E+13-1.79051E+09-2.29442E+09-4.23306E+08
 -1       256 6.77792E+11 2.78074E+11-4.91599E+13-3.22197E-01 2.92541E+08 1.13705E+00
 -1       257 2.53931E+11 4.45855E+10-5.06858E+13-3.24738E-01 3.94564E+08-3.69111E-02
 -1       258-1.00788E+11-1.00788E+11-4.11175E+13 9.92397E+09-8.34063E+09 8.34063E+09
 -1       259 2.29157E+11-1.05517E+11-4.13794E+13 1.96385E+00-9.07849E+09 7.25803E-01
 -1       260 2.61750E+11 2.61750E+11-4.54140E+13 9.93931E+09-4.89278E+08 4.89278E+08
 -1       261-1.43361E+11 1.89187E+10-4.13627E+13-1.54425E+09 1.63164E+09 8.21144E+09
 -1       262 1.89187E+10-1.43361E+11-4.13627E+13-1.54425E+09-8.21144E+09-1.63164E+09
 -1       263 6.29410E+11 2.57782E+11-4.56982E+13 3.22323E-01-7.83491E+08 7.91451E-01
 -1       264 2.09142E+11 3.67475E+10-4.16111E+13 1.92709E-01 1.46803E+09 4.41893E-01
 -1       265-5.31228E+10-5.31228E+10-2.30993E+13 4.02046E+09-1.12786E+10 1.12786E+10
 -1       266 1.31963E+11-5.47841E+10-2.32438E+13-2.58145E+00-1.21861E+10-2.04378E+00
 -1       267 1.85303E+11 1.85303E+11-3.19762E+13 6.77073E+09-1.86124E+09 1.86124E+09
 -1       268-7.63152E+10 1.45216E+10-2.32342E+13-1.49208E+09 3.95724E+09 1.11107E+10
 -1       269 1.45216E+10-7.63152E+10-2.32342E+13-1.49208E+09-1.11107E+10-3.95724E+09
 -1       270 4.43919E+11 1.83007E+11-3.21766E+13 1.48315E-02-2.49542E+09-3.79882E-01
 -1       271 1.20265E+11 2.43548E+10-2.33714E+13-5.61319E+00 3.62776E+09-1.39476E+00
 -1       272-3.72745E+10-3.72745E+10-2.05146E+11-1.75950E+09-1.84957E+10 1.84957E+10
 -1       273-3.19839E+10-3.52284E+10-1.62721E+11 3.80127E+00-1.91159E+10 5.69268E+00
 -1       274 5.87638E+10 5.87638E+10-1.15247E+13 3.24297E+09-1.06339E+09 1.06339E+09
 -1       275-4.73790E+10-4.67501E+10-2.14271E+11-2.84346E+09 1.13746E+09 1.86083E+10
 -1       276-4.67501E+10-4.73790E+10-2.14271E+11-2.84346E+09-1.86083E+10-1.13746E+09
 -1       277 1.50163E+11 5.72795E+10-1.15867E+13 1.30846E+00-1.41113E+09 1.64945E+00
 -1       278-3.48832E+10-3.74988E+10-1.71086E+11 2.35217E+00 3.16532E+08 2.66141E+00
 -1       279 2.74930E+13 2.74930E+13 6.41488E+13-2.20120E+06 8.66967E+12 8.66967E+12
 -1       280 1.23728E+12 1.23728E+12 4.54108E+13 2.81809E+11-1.60710E+12-1.60710E+12
 -1       281 2.59676E+13 2.59676E+13 6.05928E+13 9.47158E+05 8.63323E+12 4.35686E+12
 -1       282 1.40823E+12 1.53030E+12 4.72148E+13 2.28496E+11-1.61773E+12-5.27020E+11
 -1       283 2.59676E+13 2.59676E+13 6.05928E+13 9.47158E+05 4.35686E+12 8.63323E+12
 -1       284-1.22999E+12-1.22999E+12 4.49511E+13-1.13112E+10 1.60371E+12 1.60371E+12
 -1       285 1.53030E+12 1.40823E+12 4.72148E+13 2.28496E+11-5.27020E+11-1.61773E+12
 -1       286-8.59725E+10-8.59725E+10 3.03418E+13 1.04236E+11 4.54871E+10 4.54871E+10
 -1       287 8.62050E+08 2.69354E+10 3.06950E+13 5.63227E+10 6.81329E+10-1.67241E+10
 -1       288-2.13766E+11-2.13766E+11 3.78241E+13-7.01571E+10-4.13061E+10-4.13061E+10
 -1       289 2.69354E+10 8.62050E+08 3.06950E+13 5.63227E+10-1.67241E+10 6.81329E+10
 -1       290 6.72717E+10 6.72717E+10 8.74652E+12-6.10052E+09-7.40061E+09-7.40061E+09
 -1       291 7.40979E+09 5.59761E+10 8.78988E+12-5.25598E+08-4.68055E+09-2.45907E+09
 -1       292-1.25778E+11-1.25778E+11 1.96134E+13 1.32359E+10 3.23260E+10 3.23260E+10
 -1       293 5.59761E+10 7.40979E+09 8.78988E+12-5.25598E+08-2.45907E+09-4.68055E+09
 -1       294-4.76618E+10-4.76618E+10-1.49860E+13 1.00830E+09 1.85510E+10 1.85510E+10
 -1       295 6.12886E+09-5.76080E+10-1.50704E+13 2.07151E+09 1.83200E+10-2.88296E+09
 -1       296 2.12174E+10 2.12174E+10-3.12362E+12-5.68963E+09-4.51002E+09-4.51002E+09
 -1       297-5.76080E+10 6.12886E+09-1.50704E+13 2.07151E+09-2.88296E+09 1.83200E+10
 -1       298-8.37016E+10-8.37016E+10-3.53998E+13-9.72957E+09 9.51109E+09 9.51109E+09
 -1       299 1.65511E+10-1.21695E+11-3.56117E+13 9.21975E+08 9.33159E+09-1.93455E+09
 -1       300 1.43482E+11 1.43482E+11-2.50845E+13-3.90475E+09 2.90854E+09 2.90854E+09
 -1       301-1.21695E+11 1.65511E+10-3.56117E+13 9.21975E+08-1.93455E+09 9.33159E+09
 -1       302-1.18384E+11-1.18384E+11-4.80281E+13-1.11310E+10 5.01883E+09 5.01883E+09
 -1       303 2.19349E+10-1.67632E+11-4.83142E+13 1.83335E+09 4.90739E+09-8.92844E+08
 -1       304 2.40019E+11 2.40019E+11-4.15436E+13-9.45844E+09 4.64527E+08 4.64527E+08
 -1       305-1.67632E+11 2.19349E+10-4.83142E+13 1.83335E+09-8.92844E+08 4.90739E+09
 -1       306-1.22347E+11-1.22347E+11-5.00846E+13-1.20106E+10-2.33841E+09-2.33841E+09
 -1       307 2.29828E+10-1.74199E+11-5.03831E+13 1.79051E+09-2.29442E+09 4.23306E+08
 -1       308 2.81726E+11 2.81726E+11-4.88544E+13-1.04047E+10 1.91958E+08 1.91958E+08
 -1       309-1.74199E+11 2.29828E+10-5.03831E+13 1.79051E+09 4.23306E+08-2.29442E+09
 -1       310-1.00788E+11-1.00788E+11-4.11175E+13-9.92397E+09-8.34063E+09-8.34063E+09
 -1       311 1.89187E+10-1.43361E+11-4.13627E+13 1.54425E+09-8.21144E+09 1.63164E+09
 -1       312 2.61750E+11 2.61750E+11-4.54140E+13-9.93931E+09-4.89278E+08-4.89278E+08
 -1       313-1.43361E+11 1.89187E+10-4.13627E+13 1.54425E+09 1.63164E+09-8.21144E+09
 -1       314-5.31228E+10-5.31228E+10-2.30993E+13-4.02046E+09-1.12786E+10-1.12786E+10
 -1       315 1.45216E+10-7.63152E+10-2.32342E+13 1.49208E+09-1.11107E+10 3.95724E+09
 -1       316 1.85303E+11 1.85303E+11-3.19762E+13-6.77073E+09-1.86124E+09-1.86124E+09
 -1       317-7.63152E+10 1.45216E+10-2.32342E+13 1.49208E+09 3.95724E+09-1.11107E+10
 -1       318-3.72745E+10-3.72745E+10-2.05146E+11 1.75950E+09-1.84957E+10-1.84957E+10
 -1       319-4.67501E+10-4.73790E+10-2.14271E+11 2.84346E+09-1.86083E+10 1.13746E+09
 -1       320 5.87638E+10 5.87638E+10-1.15247E+13-3.24297E+09-1.06339E+09-1.06339E+09
 -1       321-4.73790E+10-4.67501E+10-2.14271E+11 2.84346E+09 1.13746E+09-1.86083E+10
 -3
    1PSTEP                        59           1           1          
    1PGM                1.000000E+00                                  
    1PGK                5.979258E+10                                  
    1PHID                         -1                                  
    1PSUBC                         0                                  
    1PMODE                        15                                  
  100CL  115 38917.39631         321                     2   15MODAL      1
 -4  TOSTRAIN    6    1
 -5  EXX         1    4    1    1
 -5  EYY         1    4    2    2
 -5  EZZ         1    4    3    3
 -5  EXY         1    4    1    2
 -5  EYZ         1    4    2    3
 -5  EZX         1    4    3    1
 -1         1 2.31049E-03 2.31049E-03 2.26919E+02-1.36265E-05-5.36694E+01-5.36694E+01
 -1         2 2.31444E-03 2.31392E-03 2.02017E+02 6.67348E-15 1.96679E-11-5.32714E+01
 -1         3-6.38069E+01-6.51018E+01 2.27529E+02-4.26992E-12 2.41350E-11 1.01226E+01
 -1         4-6.07483E+01-6.07483E+01 2.12707E+02 1.74453E+00 9.94872E+00 9.94872E+00
 -1         5 2.31392E-03 2.31444E-03 2.02017E+02-3.44343E-15-5.32714E+01-8.40898E-12
 -1         6 2.32386E-03 2.32386E-03 1.76375E+02 1.03806E-14 1.03494E-11 2.15500E-12
 -1         7-6.63975E+01-6.63975E+01 2.42964E+02 3.42521E-12 6.57080E-12-1.57152E-12
 -1         8-6.51018E+01-6.38069E+01 2.27529E+02-1.84153E-12 1.01226E+01-1.55735E-11
 -1         9-2.58814E-03-2.58877E-03 2.14344E+02 5.86336E-06-2.69711E+01-5.34438E+01
 -1        10-6.89028E+01-7.04925E+01 2.20400E+02-5.24844E-13 1.88316E-11-1.03302E+01
 -1        11-6.21744E+01-6.29300E+01 2.20635E+02 1.41450E+00 3.26250E+00 1.00145E+01
 -1        12-6.83158E+01-6.83158E+01 2.17567E+02-7.00220E-02-9.92774E+00-9.92774E+00
 -1        13-2.58877E-03-2.58814E-03 2.14344E+02 5.86336E-06-5.34438E+01-2.69711E+01
 -1        14-2.58182E-03-2.58172E-03 1.89083E+02-5.21284E-16 1.54276E-11-2.67170E+01
 -1        15-6.51071E+01-6.56464E+01 2.35764E+02 5.64548E-13 1.35989E-11 3.31428E+00
 -1        16-6.29300E+01-6.21744E+01 2.20635E+02 1.41450E+00 1.00145E+01 3.26250E+00
 -1        17-2.58172E-03-2.58182E-03 1.89083E+02 1.47712E-15-2.67170E+01-2.91055E-12
 -1        18-7.01981E+01-7.01981E+01 2.23326E+02 2.48548E-12 6.75371E-12-2.12497E-13
 -1        19-6.56464E+01-6.51071E+01 2.35764E+02 1.53727E-12 3.31428E+00-6.52056E-12
 -1        20-7.04925E+01-6.89028E+01 2.20400E+02-1.57054E-12-1.03302E+01-1.24225E-11
 -1        21-4.36336E+01-4.41290E+01 1.46310E+02 1.29936E-12-2.83822E-12-5.36671E-01
 -1        22-4.36321E+01-4.36321E+01 1.44731E+02 6.45270E-01-2.81587E-01-2.81587E-01
 -1        23-4.47276E+01-4.47276E+01 1.47862E+02 3.48802E-12-2.82718E-12-8.61491E-13
 -1        24-4.41290E+01-4.36336E+01 1.46310E+02-3.27876E-12-5.36671E-01-2.68258E-14
 -1        25-5.46478E+01-5.71722E+01 1.81509E+02-5.38514E-13 1.20287E-11 6.03671E-01
 -1        26-4.37229E+01-4.38843E+01 1.46127E+02 3.48664E-01 1.03530E-01-4.21775E-01
 -1        27-5.47470E+01-5.47470E+01 1.80725E+02-4.34306E-01 2.55704E-01 2.55704E-01
 -1        28-4.41844E+01-4.45184E+01 1.47688E+02 2.26964E-12-3.21694E-12 4.50874E-02
 -1        29-4.38843E+01-4.37229E+01 1.46127E+02 3.48664E-01-4.21775E-01 1.03530E-01
 -1        30-5.64901E+01-5.64901E+01 1.82015E+02 4.44445E-12 2.21462E-12-1.37190E-12
 -1        31-4.45184E+01-4.41844E+01 1.47688E+02 9.66077E-13 4.50874E-02-7.50247E-13
 -1        32-5.71722E+01-5.46478E+01 1.81509E+02-2.15487E-12 6.03671E-01-8.20688E-12
 -1        33-1.23620E+01-1.29304E+01 4.20137E+01-3.47519E-12-1.19573E-11-7.37059E-03
 -1        34-1.22708E+01-1.22708E+01 4.14579E+01-3.77651E-02 4.58133E-02 4.58133E-02
 -1        35-1.28954E+01-1.28954E+01 4.23528E+01 7.83556E-13-4.76062E-13-4.27942E-12
 -1        36-1.29304E+01-1.23620E+01 4.20137E+01 4.48996E-12-7.37059E-03 5.69731E-12
 -1        37-2.82630E+01-2.90167E+01 9.43718E+01-2.90692E-12-7.63535E-12-1.94731E-01
 -1        38-1.23010E+01-1.26017E+01 4.17660E+01-3.25370E-03 1.52228E-02 2.89748E-02
 -1        39-2.84384E+01-2.84384E+01 9.37565E+01 8.19365E-02-2.00113E-01-2.00113E-01
 -1        40-1.26298E+01-1.28975E+01 4.22123E+01-1.85941E-12-5.07504E-12 1.05593E-02
 -1        41-1.26017E+01-1.23010E+01 4.17660E+01-3.25370E-03 2.89748E-02 1.52228E-02
 -1        42-2.90767E+01-2.90767E+01 9.51524E+01 1.37257E-12-8.02709E-13-8.01907E-13
 -1        43-1.28975E+01-1.26298E+01 4.22123E+01 3.17746E-12 1.05593E-02-7.45570E-13
 -1        44-2.90167E+01-2.82630E+01 9.43718E+01 1.56299E-13-1.94731E-01 4.35828E-12
 -1        45 2.12309E+01 2.20278E+01-7.18776E+01-3.79164E-12-1.26113E-11-1.17408E-01
 -1        46 2.12497E+01 2.12497E+01-7.12259E+01 6.24185E-03-1.14839E-01-1.14839E-01
 -1        47 2.20031E+01 2.20031E+01-7.25225E+01 1.42449E-12 4.43167E-12 6.91329E-12
 -1        48 2.20278E+01 2.12309E+01-7.18776E+01-9.41621E-12-1.17408E-01 2.21346E-11
 -1        49 4.49747E+00 4.59229E+00-1.50415E+01-6.37295E-12-1.11621E-11 3.55363E-02
 -1        50 2.12461E+01 2.16406E+01-7.16903E+01 1.28236E-02 1.78469E-02-1.13409E-01
 -1        51 4.53304E+00 4.53304E+00-1.49350E+01-3.52215E-02 2.79192E-02 2.79192E-02
 -1        52 2.16188E+01 2.20212E+01-7.23395E+01 3.57132E-12-2.43727E-12 1.75821E-02
 -1        53 2.16406E+01 2.12461E+01-7.16903E+01 1.28236E-02-1.13409E-01 1.78469E-02
 -1        54 4.61685E+00 4.61685E+00-1.51360E+01-1.07651E-12 2.69782E-12-5.97293E-13
 -1        55 2.20212E+01 2.16188E+01-7.23395E+01-3.43265E-12 1.75821E-02 1.38148E-11
 -1        56 4.59229E+00 4.49747E+00-1.50415E+01-6.11606E-12 3.55363E-02 1.47568E-11
 -1        57 5.01828E+01 5.19521E+01-1.69795E+02 6.48956E-12-6.93957E-12-6.50367E-02
 -1        58 5.02921E+01 5.02921E+01-1.68331E+02-6.02307E-02-5.88781E-02-5.88781E-02
 -1        59 5.19512E+01 5.19512E+01-1.71267E+02 1.11390E-11 6.45898E-12 7.50460E-12
 -1        60 5.19521E+01 5.01828E+01-1.69795E+02 1.02443E-11-6.50367E-02 1.98139E-11
 -1        61 3.62464E+01 3.75323E+01-1.20904E+02 8.75921E-13-1.06021E-11-2.48068E-02
 -1        62 5.02707E+01 5.11265E+01-1.69429E+02 5.70746E-03 1.19758E-02-5.77670E-02
 -1        63 3.63133E+01 3.63133E+01-1.19860E+02-2.41723E-02-1.80052E-02-1.80052E-02
 -1        64 5.10714E+01 5.19849E+01-1.70897E+02 7.11328E-12-4.43610E-13 1.08663E-02
 -1        65 5.11265E+01 5.02707E+01-1.69429E+02 5.70746E-03-5.77670E-02 1.19758E-02
 -1        66 3.75167E+01 3.75167E+01-1.21941E+02 7.19681E-12 4.47535E-12 6.34392E-12
 -1        67 5.19849E+01 5.10714E+01-1.70897E+02 1.02275E-11 1.08663E-02 1.24202E-11
 -1        68 3.75323E+01 3.62464E+01-1.20904E+02-2.13853E-12-2.48068E-02 1.70253E-11
 -1        69 6.80816E+01 7.04995E+01-2.30370E+02 3.63802E-12 1.10342E-11-3.24292E-02
 -1        70 6.82170E+01 6.82170E+01-2.28367E+02-6.89062E-02-3.10690E-02-3.10690E-02
 -1        71 7.04893E+01 7.04893E+01-2.32370E+02-6.87837E-12 5.98918E-12-4.99641E-12
 -1        72 7.04995E+01 6.80816E+01-2.30370E+02 4.48672E-13-3.24292E-02-1.22647E-11
 -1        73 6.00197E+01 6.21193E+01-2.00223E+02 4.14928E-12 2.67463E-12-4.96900E-03
 -1        74 6.81907E+01 6.93642E+01-2.29859E+02 1.13493E-02 5.52713E-03-3.03791E-02
 -1        75 6.01481E+01 6.01481E+01-1.98512E+02-5.85522E-02-2.87564E-03-2.87564E-03
 -1        76 6.92914E+01 7.05358E+01-2.31861E+02-1.10564E-11 6.13592E-12 5.14107E-03
 -1        77 6.93642E+01 6.81907E+01-2.29859E+02 1.13493E-02-3.03791E-02 5.52713E-03
 -1        78 6.21077E+01 6.21077E+01-2.01934E+02 4.60475E-12 6.64969E-12-1.62806E-12
 -1        79 7.05358E+01 6.92914E+01-2.31861E+02-1.98975E-12 5.14107E-03-8.10243E-12
 -1        80 6.21193E+01 6.00197E+01-2.00223E+02 7.94087E-13-4.96900E-03 8.52396E-12
 -1        81 7.09977E+01 7.35143E+01-2.40233E+02 5.08385E-13 1.23412E-12 1.51865E-02
 -1        82 7.11416E+01 7.11416E+01-2.38148E+02-7.43512E-02 1.44759E-02 1.44759E-02
 -1        83 7.35057E+01 7.35057E+01-2.42317E+02 6.16033E-12-7.72568E-12-9.40024E-13
 -1        84 7.35143E+01 7.09977E+01-2.40233E+02 1.35848E-11 1.51865E-02-5.51062E-12
 -1        85 7.05843E+01 7.30588E+01-2.35460E+02 2.13448E-12 7.81434E-12-1.81097E-03
 -1        86 7.11135E+01 7.23342E+01-2.39703E+02 1.10841E-02-2.62046E-03 1.42036E-02
 -1        87 7.07312E+01 7.07312E+01-2.33445E+02-6.44100E-02-1.18831E-03-1.18831E-03
 -1        88 7.22579E+01 7.35539E+01-2.41788E+02-4.46968E-12-3.19956E-13-2.44254E-03
 -1        89 7.23342E+01 7.11135E+01-2.39703E+02 1.10841E-02 1.42036E-02-2.62046E-03
 -1        90 7.30421E+01 7.30421E+01-2.37474E+02-2.17776E-12 3.48140E-13-8.41932E-13
 -1        91 7.35539E+01 7.22579E+01-2.41788E+02 9.18871E-12-2.44254E-03-3.16140E-12
 -1        92 7.30588E+01 7.05843E+01-2.35460E+02-4.65998E-12-1.81097E-03-9.44437E-12
 -1        93 5.82837E+01 6.03555E+01-1.97222E+02-7.23616E-12 2.23701E-11 5.62002E-02
 -1        94 5.84034E+01 5.84034E+01-1.95510E+02-6.14341E-02 5.16325E-02 5.16325E-02
 -1        95 6.03475E+01 6.03475E+01-1.98934E+02-3.02004E-12-1.48865E-12-2.30234E-12
 -1        96 6.03555E+01 5.82837E+01-1.97222E+02-6.33623E-12 5.62002E-02-1.59568E-11
 -1        97 6.56116E+01 6.79121E+01-2.18878E+02-3.43606E-12 1.18323E-11 4.85018E-03
 -1        98 5.83799E+01 5.93845E+01-1.96788E+02 9.55961E-03-1.01006E-02 5.08327E-02
 -1        99 6.57497E+01 6.57497E+01-2.17005E+02-6.15290E-02 3.02886E-03 3.02886E-03
 -1       100 5.93207E+01 6.03879E+01-1.98500E+02 6.98927E-12 4.94099E-12-9.08782E-03
 -1       101 5.93845E+01 5.83799E+01-1.96788E+02 9.55961E-03 5.08327E-02-1.01006E-02
 -1       102 6.78975E+01 6.78975E+01-2.20750E+02-1.12733E-12-2.21106E-12-3.25207E-12
 -1       103 6.03879E+01 5.93207E+01-1.98500E+02-1.97241E-12-9.08782E-03-5.84916E-12
 -1       104 6.79121E+01 6.56116E+01-2.18878E+02-2.74379E-12 4.85018E-03-1.17601E-11
 -1       105 3.27560E+01 3.39120E+01-1.10795E+02 6.58673E-11 2.37475E-12 7.54375E-02
 -1       106 3.28219E+01 3.28219E+01-1.09845E+02-2.48886E-02 6.98199E-02 6.98199E-02
 -1       107 3.39021E+01 3.39021E+01-1.11740E+02-4.12175E-11-1.10668E-11-2.38465E-12
 -1       108 3.39120E+01 3.27560E+01-1.10795E+02 9.41281E-12 7.54375E-02 3.54181E-12
 -1       109 4.62038E+01 4.78190E+01-1.54117E+02 2.42116E-11 1.27489E-11 1.54479E-02
 -1       110 3.28075E+01 3.33699E+01-1.10551E+02 9.23667E-03-2.44972E-02 6.87807E-02
 -1       111 4.62979E+01 4.62979E+01-1.52797E+02-4.19140E-02 1.15219E-02 1.15219E-02
 -1       112 3.33319E+01 3.39257E+01-1.11499E+02-2.00152E-12-1.89665E-12-2.24576E-02
 -1       113 3.33699E+01 3.28075E+01-1.10551E+02 9.23667E-03 6.87807E-02-2.44972E-02
 -1       114 4.78089E+01 4.78089E+01-1.55437E+02-2.19404E-11-9.41778E-13-5.23577E-12
 -1       115 3.39257E+01 3.33319E+01-1.11499E+02-5.50252E-13-2.24576E-02 2.39843E-12
 -1       116 4.78190E+01 4.62038E+01-1.54117E+02-2.82700E-12 1.54479E-02-1.38047E-11
 -1       117 1.10396E-01 1.30481E-01-6.78847E-01-3.52691E-11-1.44292E-11 1.18337E-01
 -1       118 1.68817E-01 1.68817E-01-8.70387E-01 1.08921E-02 1.14497E-01 1.14497E-01
 -1       119 1.17922E-01 1.17922E-01-5.17498E-01 3.61382E-11 1.27056E-11 2.92235E-12
 -1       120 1.30481E-01 1.10396E-01-6.78847E-01-2.89325E-11 1.18337E-01 1.77587E-12
 -1       121 1.66107E+01 1.71857E+01-5.54712E+01 3.50438E-11-4.91570E-12 8.73560E-03
 -1       122 1.47273E-01 1.51166E-01-8.85867E-01 1.76024E-02-7.04140E-03 1.15194E-01
 -1       123 1.66598E+01 1.66598E+01-5.50477E+01-2.00755E-02 6.58286E-03 6.58286E-03
 -1       124 1.15676E-01 1.31868E-01-7.11291E-01 4.92997E-12 1.16024E-11-1.95948E-03
 -1       125 1.51166E-01 1.47273E-01-8.85867E-01 1.76024E-02 1.15194E-01-7.04140E-03
 -1       126 1.71875E+01 1.71875E+01-5.59087E+01 2.14105E-12-6.31260E-12 2.77772E-12
 -1       127 1.31868E-01 1.15676E-01-7.11291E-01 3.86280E-12-1.95948E-03 7.35849E-13
 -1       128 1.71857E+01 1.66107E+01-5.54712E+01-1.11793E-11 8.73560E-03 7.48724E-12
 -1       129 2.31049E-03 2.31049E-03 2.26919E+02 1.36265E-05-5.36694E+01 5.36694E+01
 -1       130 2.31444E-03 2.31392E-03 2.02017E+02-4.33681E-15-1.51579E-12 5.32714E+01
 -1       131-6.38069E+01-6.51018E+01 2.27529E+02 1.49397E-12-1.01222E-11-1.01226E+01
 -1       132-6.07483E+01-6.07483E+01 2.12707E+02-1.74453E+00 9.94872E+00-9.94872E+00
 -1       133-2.58877E-03-2.58814E-03 2.14344E+02-5.86336E-06-5.34438E+01 2.69711E+01
 -1       134-2.58182E-03-2.58172E-03 1.89083E+02 4.98213E-15 4.13375E-12 2.67170E+01
 -1       135-6.51071E+01-6.56464E+01 2.35764E+02 1.52547E-12-2.63678E-13-3.31428E+00
 -1       136-6.29300E+01-6.21744E+01 2.20635E+02-1.41450E+00 1.00145E+01-3.26250E+00
 -1       137-2.58814E-03-2.58877E-03 2.14344E+02-5.86336E-06-2.69711E+01 5.34438E+01
 -1       138-6.89028E+01-7.04925E+01 2.20400E+02 1.48828E-12-6.58718E-12 1.03302E+01
 -1       139-6.21744E+01-6.29300E+01 2.20635E+02-1.41450E+00 3.26250E+00-1.00145E+01
 -1       140-6.83158E+01-6.83158E+01 2.17567E+02 7.00220E-02-9.92774E+00 9.92774E+00
 -1       141-4.36336E+01-4.41290E+01 1.46310E+02 8.19236E-13-4.31956E-12 5.36671E-01
 -1       142-4.36321E+01-4.36321E+01 1.44731E+02-6.45270E-01-2.81587E-01 2.81587E-01
 -1       143-4.41844E+01-4.45184E+01 1.47688E+02 2.26850E-12-3.88126E-12-4.50874E-02
 -1       144-4.38843E+01-4.37229E+01 1.46127E+02-3.48664E-01-4.21775E-01-1.03530E-01
 -1       145-5.46478E+01-5.71722E+01 1.81509E+02 1.38049E-12-8.79896E-12-6.03671E-01
 -1       146-4.37229E+01-4.38843E+01 1.46127E+02-3.48664E-01 1.03530E-01 4.21775E-01
 -1       147-5.47470E+01-5.47470E+01 1.80725E+02 4.34306E-01 2.55704E-01-2.55704E-01
 -1       148-1.23620E+01-1.29304E+01 4.20137E+01-9.53467E-12 1.03370E-11 7.37059E-03
 -1       149-1.22708E+01-1.22708E+01 4.14579E+01 3.77651E-02 4.58133E-02-4.58133E-02
 -1       150-1.26298E+01-1.28975E+01 4.22123E+01-4.14147E-12 5.23207E-12-1.05593E-02
 -1       151-1.26017E+01-1.23010E+01 4.17660E+01 3.25370E-03 2.89748E-02-1.52228E-02
 -1       152-2.82630E+01-2.90167E+01 9.43718E+01-3.34441E-12 4.77565E-12 1.94731E-01
 -1       153-1.23010E+01-1.26017E+01 4.17660E+01 3.25370E-03 1.52228E-02-2.89748E-02
 -1       154-2.84384E+01-2.84384E+01 9.37565E+01-8.19365E-02-2.00113E-01 2.00113E-01
 -1       155 2.12309E+01 2.20278E+01-7.18776E+01 1.24495E-11 1.64732E-11 1.17408E-01
 -1       156 2.12497E+01 2.12497E+01-7.12259E+01-6.24185E-03-1.14839E-01 1.14839E-01
 -1       157 2.16188E+01 2.20212E+01-7.23395E+01 1.26587E-12 9.12712E-12-1.75821E-02
 -1       158 2.16406E+01 2.12461E+01-7.16903E+01-1.28236E-02-1.13409E-01-1.78469E-02
 -1       159 4.49747E+00 4.59229E+00-1.50415E+01 2.28511E-12 1.55040E-11-3.55363E-02
 -1       160 2.12461E+01 2.16406E+01-7.16903E+01-1.28236E-02 1.78469E-02 1.13409E-01
 -1       161 4.53304E+00 4.53304E+00-1.49350E+01 3.52215E-02 2.79192E-02-2.79192E-02
 -1       162 5.01828E+01 5.19521E+01-1.69795E+02 5.97548E-12 1.65419E-11 6.50367E-02
 -1       163 5.02921E+01 5.02921E+01-1.68331E+02 6.02307E-02-5.88781E-02 5.88781E-02
 -1       164 5.10714E+01 5.19849E+01-1.70897E+02 1.21442E-11 8.65323E-12-1.08663E-02
 -1       165 5.11265E+01 5.02707E+01-1.69429E+02-5.70746E-03-5.77670E-02-1.19758E-02
 -1       166 3.62464E+01 3.75323E+01-1.20904E+02 9.21866E-12 1.56289E-11 2.48068E-02
 -1       167 5.02707E+01 5.11265E+01-1.69429E+02-5.70746E-03 1.19758E-02 5.77670E-02
 -1       168 3.63133E+01 3.63133E+01-1.19860E+02 2.41723E-02-1.80052E-02 1.80052E-02
 -1       169 6.80816E+01 7.04995E+01-2.30370E+02-7.34943E-12-2.80430E-12 3.24292E-02
 -1       170 6.82170E+01 6.82170E+01-2.28367E+02 6.89062E-02-3.10690E-02 3.10690E-02
 -1       171 6.92914E+01 7.05358E+01-2.31861E+02 4.34047E-13 1.71520E-12-5.14107E-03
 -1       172 6.93642E+01 6.81907E+01-2.29859E+02-1.13493E-02-3.03791E-02-5.52713E-03
 -1       173 6.00197E+01 6.21193E+01-2.00223E+02 3.83556E-12 7.90570E-12 4.96900E-03
 -1       174 6.81907E+01 6.93642E+01-2.29859E+02-1.13493E-02 5.52713E-03 3.03791E-02
 -1       175 6.01481E+01 6.01481E+01-1.98512E+02 5.85522E-02-2.87564E-03 2.87564E-03
 -1       176 7.09977E+01 7.35143E+01-2.40233E+02-3.49561E-12-1.95910E-11-1.51865E-02
 -1       177 7.11416E+01 7.11416E+01-2.38148E+02 7.43512E-02 1.44759E-02-1.44759E-02
 -1       178 7.22579E+01 7.35539E+01-2.41788E+02 2.10226E-12-8.97367E-12 2.44254E-03
 -1       179 7.23342E+01 7.11135E+01-2.39703E+02-1.10841E-02 1.42036E-02 2.62046E-03
 -1       180 7.05843E+01 7.30588E+01-2.35460E+02-4.75939E-12-7.96067E-12 1.81097E-03
 -1       181 7.11135E+01 7.23342E+01-2.39703E+02-1.10841E-02-2.62046E-03-1.42036E-02
 -1       182 7.07312E+01 7.07312E+01-2.33445E+02 6.44100E-02-1.18831E-03 1.18831E-03
 -1       183 5.82837E+01 6.03555E+01-1.97222E+02 4.97394E-11-1.23004E-11-5.62002E-02
 -1       184 5.84034E+01 5.84034E+01-1.95510E+02 6.14341E-02 5.16325E-02-5.16325E-02
 -1       185 5.93207E+01 6.03879E+01-1.98500E+02 7.69180E-12-5.78388E-12 9.08782E-03
 -1       186 5.93845E+01 5.83799E+01-1.96788E+02-9.55961E-03 5.08327E-02 1.01006E-02
 -1       187 6.56116E+01 6.79121E+01-2.18878E+02 2.13478E-11-1.88140E-11-4.85018E-03
 -1       188 5.83799E+01 5.93845E+01-1.96788E+02-9.55961E-03-1.01006E-02-5.08327E-02
 -1       189 6.57497E+01 6.57497E+01-2.17005E+02 6.15290E-02 3.02886E-03-3.02886E-03
 -1       190 3.27560E+01 3.39120E+01-1.10795E+02 1.32279E-11 2.82545E-13-7.54375E-02
 -1       191 3.28219E+01 3.28219E+01-1.09845E+02 2.48886E-02 6.98199E-02-6.98199E-02
 -1       192 3.33319E+01 3.39257E+01-1.11499E+02 5.01445E-12-9.35726E-12 2.24576E-02
 -1       193 3.33699E+01 3.28075E+01-1.10551E+02-9.23667E-03 6.87807E-02 2.44972E-02
 -1       194 4.62038E+01 4.78190E+01-1.54117E+02 3.01357E-11-1.00346E-11-1.54479E-02
 -1       195 3.28075E+01 3.33699E+01-1.10551E+02-9.23667E-03-2.44972E-02-6.87807E-02
 -1       196 4.62979E+01 4.62979E+01-1.52797E+02 4.19140E-02 1.15219E-02-1.15219E-02
 -1       197 1.10396E-01 1.30481E-01-6.78847E-01-2.69145E-11-7.50650E-12-1.18337E-01
 -1       198 1.68817E-01 1.68817E-01-8.70387E-01-1.08921E-02 1.14497E-01-1.14497E-01
 -1       199 1.15676E-01 1.31868E-01-7.11291E-01-5.60481E-12-6.02948E-13 1.95948E-03
 -1       200 1.51166E-01 1.47273E-01-8.85867E-01-1.76024E-02 1.15194E-01 7.04140E-03
 -1       201 1.66107E+01 1.71857E+01-5.54712E+01-2.08335E-11 2.84578E-12-8.73560E-03
 -1       202 1.47273E-01 1.51166E-01-8.85867E-01-1.76024E-02-7.04140E-03-1.15194E-01
 -1       203 1.66598E+01 1.66598E+01-5.50477E+01 2.00755E-02 6.58286E-03-6.58286E-03
 -1       204 2.31049E-03 2.31049E-03 2.26919E+02 1.36265E-05 5.36694E+01-5.36694E+01
 -1       205-6.07483E+01-6.07483E+01 2.12707E+02-1.74453E+00-9.94872E+00 9.94872E+00
 -1       206 2.31392E-03 2.31444E-03 2.02017E+02 2.10942E-14 5.32714E+01 1.00012E-11
 -1       207-6.51018E+01-6.38069E+01 2.27529E+02-2.01006E-13-1.01226E+01 1.38840E-11
 -1       208-2.58814E-03-2.58877E-03 2.14344E+02-5.86336E-06 2.69711E+01-5.34438E+01
 -1       209-6.83158E+01-6.83158E+01 2.17567E+02 7.00220E-02 9.92774E+00-9.92774E+00
 -1       210-6.21744E+01-6.29300E+01 2.20635E+02-1.41450E+00-3.26250E+00 1.00145E+01
 -1       211-2.58877E-03-2.58814E-03 2.14344E+02-5.86336E-06 5.34438E+01-2.69711E+01
 -1       212-6.29300E+01-6.21744E+01 2.20635E+02-1.41450E+00-1.00145E+01 3.26250E+00
 -1       213-2.58172E-03-2.58182E-03 1.89083E+02 4.33681E-15 2.67170E+01 6.02611E-12
 -1       214-7.04925E+01-6.89028E+01 2.20400E+02-9.37722E-14 1.03302E+01 1.16218E-11
 -1       215-6.56464E+01-6.51071E+01 2.35764E+02 1.30948E-12-3.31428E+00 4.25115E-12
 -1       216-4.36321E+01-4.36321E+01 1.44731E+02-6.45270E-01 2.81587E-01-2.81587E-01
 -1       217-4.41290E+01-4.36336E+01 1.46310E+02 1.02619E-12 5.36671E-01-6.61679E-13
 -1       218-5.47470E+01-5.47470E+01 1.80725E+02 4.34306E-01-2.55704E-01 2.55704E-01
 -1       219-4.37229E+01-4.38843E+01 1.46127E+02-3.48664E-01-1.03530E-01-4.21775E-01
 -1       220-4.38843E+01-4.37229E+01 1.46127E+02-3.48664E-01 4.21775E-01 1.03530E-01
 -1       221-5.71722E+01-5.46478E+01 1.81509E+02 8.76577E-13-6.03671E-01 6.80345E-12
 -1       222-4.45184E+01-4.41844E+01 1.47688E+02 1.03401E-12-4.50874E-02-7.68788E-13
 -1       223-1.22708E+01-1.22708E+01 4.14579E+01 3.77651E-02-4.58133E-02 4.58133E-02
 -1       224-1.29304E+01-1.23620E+01 4.20137E+01 7.57478E-12 7.37059E-03-1.38738E-11
 -1       225-2.84384E+01-2.84384E+01 9.37565E+01-8.19365E-02 2.00113E-01-2.00113E-01
 -1       226-1.23010E+01-1.26017E+01 4.17660E+01 3.25370E-03-1.52228E-02 2.89748E-02
 -1       227-1.26017E+01-1.23010E+01 4.17660E+01 3.25370E-03-2.89748E-02 1.52228E-02
 -1       228-2.90167E+01-2.82630E+01 9.43718E+01 3.79102E-12 1.94731E-01-7.11622E-12
 -1       229-1.28975E+01-1.26298E+01 4.22123E+01 2.59532E-12-1.05593E-02-7.72562E-12
 -1       230 2.12497E+01 2.12497E+01-7.12259E+01-6.24185E-03 1.14839E-01-1.14839E-01
 -1       231 2.20278E+01 2.12309E+01-7.18776E+01-3.91955E-12 1.17408E-01-1.14274E-11
 -1       232 4.53304E+00 4.53304E+00-1.49350E+01 3.52215E-02-2.79192E-02 2.79192E-02
 -1       233 2.12461E+01 2.16406E+01-7.16903E+01-1.28236E-02-1.78469E-02-1.13409E-01
 -1       234 2.16406E+01 2.12461E+01-7.16903E+01-1.28236E-02 1.13409E-01 1.78469E-02
 -1       235 4.59229E+00 4.49747E+00-1.50415E+01-1.06240E-12-3.55363E-02-1.07536E-11
 -1       236 2.20212E+01 2.16188E+01-7.23395E+01-4.78289E-13-1.75821E-02-2.40207E-12
 -1       237 5.02921E+01 5.02921E+01-1.68331E+02 6.02307E-02 5.88781E-02-5.88781E-02
 -1       238 5.19521E+01 5.01828E+01-1.69795E+02-2.18745E-11 6.50367E-02-1.26171E-11
 -1       239 3.63133E+01 3.63133E+01-1.19860E+02 2.41723E-02 1.80052E-02-1.80052E-02
 -1       240 5.02707E+01 5.11265E+01-1.69429E+02-5.70746E-03-1.19758E-02-5.77670E-02
 -1       241 5.11265E+01 5.02707E+01-1.69429E+02-5.70746E-03 5.77670E-02 1.19758E-02
 -1       242 3.75323E+01 3.62464E+01-1.20904E+02-6.55972E-12 2.48068E-02-1.05179E-11
 -1       243 5.19849E+01 5.10714E+01-1.70897E+02-3.08978E-12-1.08663E-02-6.11219E-13
 -1       244 6.82170E+01 6.82170E+01-2.28367E+02 6.89062E-02 3.10690E-02-3.10690E-02
 -1       245 7.04995E+01 6.80816E+01-2.30370E+02 1.43921E-11 3.24292E-02 7.60956E-12
 -1       246 6.01481E+01 6.01481E+01-1.98512E+02 5.85522E-02 2.87564E-03-2.87564E-03
 -1       247 6.81907E+01 6.93642E+01-2.29859E+02-1.13493E-02-5.52713E-03-3.03791E-02
 -1       248 6.93642E+01 6.81907E+01-2.29859E+02-1.13493E-02 3.03791E-02 5.52713E-03
 -1       249 6.21193E+01 6.00197E+01-2.00223E+02 6.90635E-12 4.96900E-03-5.59631E-12
 -1       250 7.05358E+01 6.92914E+01-2.31861E+02-2.42234E-12-5.14107E-03 1.54792E-12
 -1       251 7.11416E+01 7.11416E+01-2.38148E+02 7.43512E-02-1.44759E-02 1.44759E-02
 -1       252 7.35143E+01 7.09977E+01-2.40233E+02-2.38764E-11-1.51865E-02 7.62764E-12
 -1       253 7.07312E+01 7.07312E+01-2.33445E+02 6.44100E-02 1.18831E-03-1.18831E-03
 -1       254 7.11135E+01 7.23342E+01-2.39703E+02-1.10841E-02 2.62046E-03 1.42036E-02
 -1       255 7.23342E+01 7.11135E+01-2.39703E+02-1.10841E-02-1.42036E-02-2.62046E-03
 -1       256 7.30588E+01 7.05843E+01-2.35460E+02-1.99456E-12 1.81097E-03 7.03889E-12
 -1       257 7.35539E+01 7.22579E+01-2.41788E+02-2.01028E-12 2.44254E-03-2.28525E-13
 -1       258 5.84034E+01 5.84034E+01-1.95510E+02 6.14341E-02-5.16325E-02 5.16325E-02
 -1       259 6.03555E+01 5.82837E+01-1.97222E+02 1.21572E-11-5.62002E-02 4.49304E-12
 -1       260 6.57497E+01 6.57497E+01-2.17005E+02 6.15290E-02-3.02886E-03 3.02886E-03
 -1       261 5.83799E+01 5.93845E+01-1.96788E+02-9.55961E-03 1.01006E-02 5.08327E-02
 -1       262 5.93845E+01 5.83799E+01-1.96788E+02-9.55961E-03-5.08327E-02-1.01006E-02
 -1       263 6.79121E+01 6.56116E+01-2.18878E+02 1.99531E-12-4.85018E-03 4.89950E-12
 -1       264 6.03879E+01 5.93207E+01-1.98500E+02 1.19298E-12 9.08782E-03 2.73553E-12
 -1       265 3.28219E+01 3.28219E+01-1.09845E+02 2.48886E-02-6.98199E-02 6.98199E-02
 -1       266 3.39120E+01 3.27560E+01-1.10795E+02-1.59804E-11-7.54375E-02-1.26520E-11
 -1       267 4.62979E+01 4.62979E+01-1.52797E+02 4.19140E-02-1.15219E-02 1.15219E-02
 -1       268 3.28075E+01 3.33699E+01-1.10551E+02-9.23667E-03 2.44972E-02 6.87807E-02
 -1       269 3.33699E+01 3.28075E+01-1.10551E+02-9.23667E-03-6.87807E-02-2.44972E-02
 -1       270 4.78190E+01 4.62038E+01-1.54117E+02 9.18085E-14-1.54479E-02-2.35163E-12
 -1       271 3.39257E+01 3.33319E+01-1.11499E+02-3.47483E-11 2.24576E-02-8.63422E-12
 -1       272 1.68817E-01 1.68817E-01-8.70387E-01-1.08921E-02-1.14497E-01 1.14497E-01
 -1       273 1.30481E-01 1.10396E-01-6.78847E-01 2.35317E-11-1.18337E-01 3.52404E-11
 -1       274 1.66598E+01 1.66598E+01-5.50477E+01 2.00755E-02-6.58286E-03 6.58286E-03
 -1       275 1.47273E-01 1.51166E-01-8.85867E-01-1.76024E-02 7.04140E-03 1.15194E-01
 -1       276 1.51166E-01 1.47273E-01-8.85867E-01-1.76024E-02-1.15194E-01-7.04140E-03
 -1       277 1.71857E+01 1.66107E+01-5.54712E+01 8.09998E-12-8.73560E-03 1.02109E-11
 -1       278 1.31868E-01 1.15676E-01-7.11291E-01 1.45611E-11 1.95948E-03 1.64754E-11
 -1       279 2.31049E-03 2.31049E-03 2.26919E+02-1.36265E-05 5.36694E+01 5.36694E+01
 -1       280-6.07483E+01-6.07483E+01 2.12707E+02 1.74453E+00-9.94872E+00-9.94872E+00
 -1       281-2.58877E-03-2.58814E-03 2.14344E+02 5.86336E-06 5.34438E+01 2.69711E+01
 -1       282-6.29300E+01-6.21744E+01 2.20635E+02 1.41450E+00-1.00145E+01-3.26250E+00
 -1       283-2.58814E-03-2.58877E-03 2.14344E+02 5.86336E-06 2.69711E+01 5.34438E+01
 -1       284-6.83158E+01-6.83158E+01 2.17567E+02-7.00220E-02 9.92774E+00 9.92774E+00
 -1       285-6.21744E+01-6.29300E+01 2.20635E+02 1.41450E+00-3.26250E+00-1.00145E+01
 -1       286-4.36321E+01-4.36321E+01 1.44731E+02 6.45270E-01 2.81587E-01 2.81587E-01
 -1       287-4.38843E+01-4.37229E+01 1.46127E+02 3.48664E-01 4.21775E-01-1.03530E-01
 -1       288-5.47470E+01-5.47470E+01 1.80725E+02-4.34306E-01-2.55704E-01-2.55704E-01
 -1       289-4.37229E+01-4.38843E+01 1.46127E+02 3.48664E-01-1.03530E-01 4.21775E-01
 -1       290-1.22708E+01-1.22708E+01 4.14579E+01-3.77651E-02-4.58133E-02-4.58133E-02
 -1       291-1.26017E+01-1.23010E+01 4.17660E+01-3.25370E-03-2.89748E-02-1.52228E-02
 -1       292-2.84384E+01-2.84384E+01 9.37565E+01 8.19365E-02 2.00113E-01 2.00113E-01
 -1       293-1.23010E+01-1.26017E+01 4.17660E+01-3.25370E-03-1.52228E-02-2.89748E-02
 -1       294 2.12497E+01 2.12497E+01-7.12259E+01 6.24185E-03 1.14839E-01 1.14839E-01
 -1       295 2.16406E+01 2.12461E+01-7.16903E+01 1.28236E-02 1.13409E-01-1.78469E-02
 -1       296 4.53304E+00 4.53304E+00-1.49350E+01-3.52215E-02-2.79192E-02-2.79192E-02
 -1       297 2.12461E+01 2.16406E+01-7.16903E+01 1.28236E-02-1.78469E-02 1.13409E-01
 -1       298 5.02921E+01 5.02921E+01-1.68331E+02-6.02307E-02 5.88781E-02 5.88781E-02
 -1       299 5.11265E+01 5.02707E+01-1.69429E+02 5.70746E-03 5.77670E-02-1.19758E-02
 -1       300 3.63133E+01 3.63133E+01-1.19860E+02-2.41723E-02 1.80052E-02 1.80052E-02
 -1       301 5.02707E+01 5.11265E+01-1.69429E+02 5.70746E-03-1.19758E-02 5.77670E-02
 -1       302 6.82170E+01 6.82170E+01-2.28367E+02-6.89062E-02 3.10690E-02 3.10690E-02
 -1       303 6.93642E+01 6.81907E+01-2.29859E+02 1.13493E-02 3.03791E-02-5.52713E-03
 -1       304 6.01481E+01 6.01481E+01-1.98512E+02-5.85522E-02 2.87564E-03 2.87564E-03
 -1       305 6.81907E+01 6.93642E+01-2.29859E+02 1.13493E-02-5.52713E-03 3.03791E-02
 -1       306 7.11416E+01 7.11416E+01-2.38148E+02-7.43512E-02-1.44759E-02-1.44759E-02
 -1       307 7.23342E+01 7.11135E+01-2.39703E+02 1.10841E-02-1.42036E-02 2.62046E-03
 -1       308 7.07312E+01 7.07312E+01-2.33445E+02-6.44100E-02 1.18831E-03 1.18831E-03
 -1       309 7.11135E+01 7.23342E+01-2.39703E+02 1.10841E-02 2.62046E-03-1.42036E-02
 -1       310 5.84034E+01 5.84034E+01-1.95510E+02-6.14341E-02-5.16325E-02-5.16325E-02
 -1       311 5.93845E+01 5.83799E+01-1.96788E+02 9.55961E-03-5.08327E-02 1.01006E-02
 -1       312 6.57497E+01 6.57497E+01-2.17005E+02-6.15290E-02-3.02886E-03-3.02886E-03
 -1       313 5.83799E+01 5.93845E+01-1.96788E+02 9.55961E-03 1.01006E-02-5.08327E-02
 -1       314 3.28219E+01 3.28219E+01-1.09845E+02-2.48886E-02-6.98199E-02-6.98199E-02
 -1       315 3.33699E+01 3.28075E+01-1.10551E+02 9.23667E-03-6.87807E-02 2.44972E-02
 -1       316 4.62979E+01 4.62979E+01-1.52797E+02-4.19140E-02-1.15219E-02-1.15219E-02
 -1       317 3.28075E+01 3.33699E+01-1.10551E+02 9.23667E-03 2.44972E-02-6.87807E-02
 -1       318 1.68817E-01 1.68817E-01-8.70387E-01 1.08921E-02-1.14497E-01-1.14497E-01
 -1       319 1.51166E-01 1.47273E-01-8.85867E-01 1.76024E-02-1.15194E-01 7.04140E-03
 -1       320 1.66598E+01 1.66598E+01-5.50477E+01-2.00755E-02-6.58286E-03-6.58286E-03
 -1       321 1.47273E-01 1.51166E-01-8.85867E-01 1.76024E-02 7.04140E-03-1.15194E-01
 -3
    1PSTEP                        60           1           1          
    1PGM                1.000000E+00                                  
    1PGK                5.979258E+10                                  
    1PHID                         -1                                  
    1PSUBC                         0                                  
    1PMODE                        15                                  
  100CL  115 38917.39631         321                     2   15MODAL      1
 -4  ERROR       1    1
 -5  STR(%)      1    1    0    0
 -1         1 1.26384E+00
 -1         2 1.26384E+00
 -1         3 1.87992E+00
 -1         4 1.87992E+00
 -1         5 1.26384E+00
 -1         6 1.26384E+00
 -1         7 1.87992E+00
 -1         8 1.87992E+00
 -1         9 1.26384E+00
 -1        10 1.57188E+00
 -1        11 1.87992E+00
 -1        12 1.57188E+00
 -1        13 1.26384E+00
 -1        14 1.26384E+00
 -1        15 1.87992E+00
 -1        16 1.87992E+00
 -1        17 1.26384E+00
 -1        18 1.57188E+00
 -1        19 1.87992E+00
 -1        20 1.57188E+00
 -1        21 1.07343E+01
 -1        22 1.07343E+01
 -1        23 1.07343E+01
 -1        24 1.07343E+01
 -1        25 6.30710E+00
 -1        26 1.07343E+01
 -1        27 6.30710E+00
 -1        28 1.07343E+01
 -1        29 1.07343E+01
 -1        30 6.30710E+00
 -1        31 1.07343E+01
 -1        32 6.30710E+00
 -1        33 2.18347E+01
 -1        34 2.18347E+01
 -1        35 2.18347E+01
 -1        36 2.18347E+01
 -1        37 1.62845E+01
 -1        38 2.18347E+01
 -1        39 1.62845E+01
 -1        40 2.18347E+01
 -1        41 2.18347E+01
 -1        42 1.62845E+01
 -1        43 2.18347E+01
 -1        44 1.62845E+01
 -1        45 2.18347E+01
 -1        46 2.18347E+01
 -1        47 2.18347E+01
 -1        48 2.18347E+01
 -1        49 2.18347E+01
 -1        50 2.18347E+01
 -1        51 2.18347E+01
 -1        52 2.18347E+01
 -1        53 2.18347E+01
 -1        54 2.18347E+01
 -1        55 2.18347E+01
 -1        56 2.18347E+01
 -1        57 7.35993E+00
 -1        58 7.35993E+00
 -1        59 7.35993E+00
 -1        60 7.35993E+00
 -1        61 1.45973E+01
 -1        62 7.35993E+00
 -1        63 1.45973E+01
 -1        64 7.35993E+00
 -1        65 7.35993E+00
 -1        66 1.45973E+01
 -1        67 7.35993E+00
 -1        68 1.45973E+01
 -1        69 1.09555E+00
 -1        70 1.09555E+00
 -1        71 1.09555E+00
 -1        72 1.09555E+00
 -1        73 4.22774E+00
 -1        74 1.09555E+00
 -1        75 4.22774E+00
 -1        76 1.09555E+00
 -1        77 1.09555E+00
 -1        78 4.22774E+00
 -1        79 1.09555E+00
 -1        80 4.22774E+00
 -1        81 7.53513E-01
 -1        82 7.53513E-01
 -1        83 7.53513E-01
 -1        84 7.53513E-01
 -1        85 9.24531E-01
 -1        86 7.53513E-01
 -1        87 9.24531E-01
 -1        88 7.53513E-01
 -1        89 7.53513E-01
 -1        90 9.24531E-01
 -1        91 7.53513E-01
 -1        92 9.24531E-01
 -1        93 4.06589E+00
 -1        94 4.06589E+00
 -1        95 4.06589E+00
 -1        96 4.06589E+00
 -1        97 2.40970E+00
 -1        98 4.06589E+00
 -1        99 2.40970E+00
 -1       100 4.06589E+00
 -1       101 4.06589E+00
 -1       102 2.40970E+00
 -1       103 4.06589E+00
 -1       104 2.40970E+00
 -1       105 1.82078E+01
 -1       106 1.82078E+01
 -1       107 1.82078E+01
 -1       108 1.82078E+01
 -1       109 1.11368E+01
 -1       110 1.82078E+01
 -1       111 1.11368E+01
 -1       112 1.82078E+01
 -1       113 1.82078E+01
 -1       114 1.11368E+01
 -1       115 1.82078E+01
 -1       116 1.11368E+01
 -1       117 1.82078E+01
 -1       118 1.82078E+01
 -1       119 1.82078E+01
 -1       120 1.82078E+01
 -1       121 1.82078E+01
 -1       122 1.82078E+01
 -1       123 1.82078E+01
 -1       124 1.82078E+01
 -1       125 1.82078E+01
 -1       126 1.82078E+01
 -1       127 1.82078E+01
 -1       128 1.82078E+01
 -1       129 1.26384E+00
 -1       130 1.26384E+00
 -1       131 1.87992E+00
 -1       132 1.87992E+00
 -1       133 1.26384E+00
 -1       134 1.26384E+00
 -1       135 1.87992E+00
 -1       136 1.87992E+00
 -1       137 1.26384E+00
 -1       138 1.57188E+00
 -1       139 1.87992E+00
 -1       140 1.57188E+00
 -1       141 1.07343E+01
 -1       142 1.07343E+01
 -1       143 1.07343E+01
 -1       144 1.07343E+01
 -1       145 6.30710E+00
 -1       146 1.07343E+01
 -1       147 6.30710E+00
 -1       148 2.18347E+01
 -1       149 2.18347E+01
 -1       150 2.18347E+01
 -1       151 2.18347E+01
 -1       152 1.62845E+01
 -1       153 2.18347E+01
 -1       154 1.62845E+01
 -1       155 2.18347E+01
 -1       156 2.18347E+01
 -1       157 2.18347E+01
 -1       158 2.18347E+01
 -1       159 2.18347E+01
 -1       160 2.18347E+01
 -1       161 2.18347E+01
 -1       162 7.35993E+00
 -1       163 7.35993E+00
 -1       164 7.35993E+00
 -1       165 7.35993E+00
 -1       166 1.45973E+01
 -1       167 7.35993E+00
 -1       168 1.45973E+01
 -1       169 1.09555E+00
 -1       170 1.09555E+00
 -1       171 1.09555E+00
 -1       172 1.09555E+00
 -1       173 4.22774E+00
 -1       174 1.09555E+00
 -1       175 4.22774E+00
 -1       176 7.53513E-01
 -1       177 7.53513E-01
 -1       178 7.53513E-01
 -1       179 7.53513E-01
 -1       180 9.24531E-01
 -1       181 7.53513E-01
 -1       182 9.24531E-01
 -1       183 4.06589E+00
 -1       184 4.06589E+00
 -1       185 4.06589E+00
 -1       186 4.06589E+00
 -1       187 2.40970E+00
 -1       188 4.06589E+00
 -1       189 2.40970E+00
 -1       190 1.82078E+01
 -1       191 1.82078E+01
 -1       192 1.82078E+01
 -1       193 1.82078E+01
 -1       194 1.11368E+01
 -1       195 1.82078E+01
 -1       196 1.11368E+01
 -1       197 1.82078E+01
 -1       198 1.82078E+01
 -1       199 1.82078E+01
 -1       200 1.82078E+01
 -1       201 1.82078E+01
 -1       202 1.82078E+01
 -1       203 1.82078E+01
 -1       204 1.26384E+00
 -1       205 1.87992E+00
 -1       206 1.26384E+00
 -1       207 1.87992E+00
 -1       208 1.26384E+00
 -1       209 1.57188E+00
 -1       210 1.87992E+00
 -1       211 1.26384E+00
 -1       212 1.87992E+00
 -1       213 1.26384E+00
 -1       214 1.57188E+00
 -1       215 1.87992E+00
 -1       216 1.07343E+01
 -1       217 1.07343E+01
 -1       218 6.30710E+00
 -1       219 1.07343E+01
 -1       220 1.07343E+01
 -1       221 6.30710E+00
 -1       222 1.07343E+01
 -1       223 2.18347E+01
 -1       224 2.18347E+01
 -1       225 1.62845E+01
 -1       226 2.18347E+01
 -1       227 2.18347E+01
 -1       228 1.62845E+01
 -1       229 2.18347E+01
 -1       230 2.18347E+01
 -1       231 2.18347E+01
 -1       232 2.18347E+01
 -1       233 2.18347E+01
 -1       234 2.18347E+01
 -1       235 2.18347E+01
 -1       236 2.18347E+01
 -1       237 7.35993E+00
 -1       238 7.35993E+00
 -1       239 1.45973E+01
 -1       240 7.35993E+00
 -1       241 7.35993E+00
 -1       242 1.45973E+01
 -1       243 7.35993E+00
 -1       244 1.09555E+00
 -1       245 1.09555E+00
 -1       246 4.22774E+00
 -1       247 1.09555E+00
 -1       248 1.09555E+00
 -1       249 4.22774E+00
 -1       250 1.09555E+00
 -1       251 7.53513E-01
 -1       252 7.53513E-01
 -1       253 9.24531E-01
 -1       254 7.53513E-01
 -1       255 7.53513E-01
 -1       256 9.24531E-01
 -1       257 7.53513E-01
 -1       258 4.06589E+00
 -1       259 4.06589E+00
 -1       260 2.40970E+00
 -1       261 4.06589E+00
 -1       262 4.06589E+00
 -1       263 2.40970E+00
 -1       264 4.06589E+00
 -1       265 1.82078E+01
 -1       266 1.82078E+01
 -1       267 1.11368E+01
 -1       268 1.82078E+01
 -1       269 1.82078E+01
 -1       270 1.11368E+01
 -1       271 1.82078E+01
 -1       272 1.82078E+01
 -1       273 1.82078E+01
 -1       274 1.82078E+01
 -1       275 1.82078E+01
 -1       276 1.82078E+01
 -1       277 1.82078E+01
 -1       278 1.82078E+01
 -1       279 1.26384E+00
 -1       280 1.87992E+00
 -1       281 1.26384E+00
 -1       282 1.87992E+00
 -1       283 1.26384E+00
 -1       284 1.57188E+00
 -1       285 1.87992E+00
 -1       286 1.07343E+01
 -1       287 1.07343E+01
 -1       288 6.30710E+00
 -1       289 1.07343E+01
 -1       290 2.18347E+01
 -1       291 2.18347E+01
 -1       292 1.62845E+01
 -1       293 2.18347E+01
 -1       294 2.18347E+01
 -1       295 2.18347E+01
 -1       296 2.18347E+01
 -1       297 2.18347E+01
 -1       298 7.35993E+00
 -1       299 7.35993E+00
 -1       300 1.45973E+01
 -1       301 7.35993E+00
 -1       302 1.09555E+00
 -1       303 1.09555E+00
 -1       304 4.22774E+00
 -1       305 1.09555E+00
 -1       306 7.53513E-01
 -1       307 7.53513E-01
 -1       308 9.24531E-01
 -1       309 7.53513E-01
 -1       310 4.06589E+00
 -1       311 4.06589E+00
 -1       312 2.40970E+00
 -1       313 4.06589E+00
 -1       314 1.82078E+01
 -1       315 1.82078E+01
 -1       316 1.11368E+01
 -1       317 1.82078E+01
 -1       318 1.82078E+01
 -1       319 1.82078E+01
 -1       320 1.82078E+01
 -1       321 1.82078E+01
 -3
    1PSTEP                        61           1           1          
    1PGM                1.000000E+00                                  
    1PGK                1.040845E+11                                  
    1PHID                         -1                                  
    1PSUBC                         0                                  
    1PMODE                        16                                  
  100CL  116 51346.77972         321                     2   16MODAL      1
 -4  DISP        4    1
 -5  D1          1    2    1    0
 -5  D2          1    2    2    0
 -5  D3          1    2    3    0
 -5  ALL         1    2    0    0    1ALL
 -1         1 0.00000E+00 0.00000E+00 0.00000E+00
 -1         2 0.00000E+00 0.00000E+00 0.00000E+00
 -1         3 4.73300E+00-1.01289E+00-4.60958E-01
 -1         4 5.05866E+00-1.46727E+00-3.05739E-01
 -1         5 0.00000E+00 0.00000E+00 0.00000E+00
 -1         6 0.00000E+00 0.00000E+00 0.00000E+00
 -1         7 5.01942E+00-9.73287E-01 3.77476E-15
 -1         8 5.22366E+00-9.17749E-01 8.93818E-02
 -1         9 0.00000E+00 0.00000E+00 0.00000E+00
 -1        10 2.72985E+00-5.25671E-01-1.06652E+00
 -1        11 4.84126E+00-1.25037E+00-4.82144E-01
 -1        12 2.70677E+00-4.57521E-01-8.09764E-01
 -1        13 0.00000E+00 0.00000E+00 0.00000E+00
 -1        14 0.00000E+00 0.00000E+00 0.00000E+00
 -1        15 4.93022E+00-9.83694E-01-1.90100E-02
 -1        16 5.19286E+00-1.17656E+00 1.49074E-01
 -1        17 0.00000E+00 0.00000E+00 0.00000E+00
 -1        18 2.70482E+00-5.24477E-01-2.74780E-15
 -1        19 5.07309E+00-9.55991E-01 3.68613E-03
 -1        20 2.71098E+00-5.29330E-01 2.06803E-01
 -1        21 1.42243E+00-3.01076E-01 2.86230E+00
 -1        22 1.52875E+00-4.43398E-01 2.23289E+00
 -1        23 1.49210E+00-2.89324E-01 4.61089E-15
 -1        24 1.55270E+00-2.75816E-01-5.55013E-01
 -1        25 4.42119E+00-9.29008E-01 1.48532E+00
 -1        26 1.43852E+00-3.78285E-01 2.67697E+00
 -1        27 4.78147E+00-1.41889E+00 1.16422E+00
 -1        28 1.49311E+00-2.90297E-01 1.19972E+00
 -1        29 1.57349E+00-3.41366E-01 5.37365E-01
 -1        30 4.57294E+00-8.86714E-01 5.99520E-15
 -1        31 1.49711E+00-2.89521E-01-2.32631E-01
 -1        32 4.79106E+00-8.57287E-01-2.88010E-01
 -1        33-4.29952E+00 9.55470E-01 4.55399E-01
 -1        34-4.77737E+00 1.58861E+00 3.56943E-01
 -1        35-4.62714E+00 8.97222E-01 7.21645E-15
 -1        36-4.92753E+00 8.33696E-01-8.83038E-02
 -1        37-2.29835E+00 5.05436E-01 2.31540E+00
 -1        38-4.42392E+00 1.29297E+00 4.21506E-01
 -1        39-2.55932E+00 8.54563E-01 1.79023E+00
 -1        40-4.57608E+00 9.08129E-01 1.99388E-01
 -1        41-4.95907E+00 1.17039E+00 9.73483E-02
 -1        42-2.43764E+00 4.72670E-01 9.49241E-15
 -1        43-4.68339E+00 8.87323E-01-3.86623E-02
 -1        44-2.60662E+00 4.45660E-01-4.48966E-01
 -1        45-3.24891E-02 8.37606E-03-2.73183E+00
 -1        46-3.97118E-02 1.79322E-02-2.11865E+00
 -1        47-3.79526E-02 7.35918E-03 1.04361E-14
 -1        48-4.31968E-02 6.29977E-03 5.29714E-01
 -1        49-3.33386E+00 7.25310E-01-1.66934E+00
 -1        50-3.53674E-02 1.33410E-02-2.55752E+00
 -1        51-3.68172E+00 1.18823E+00-1.28355E+00
 -1        52-3.60442E-02 7.64400E-03-1.12475E+00
 -1        53-4.23051E-02 1.23553E-02-4.80590E-01
 -1        54-3.51996E+00 6.82536E-01 3.98119E-15
 -1        55-3.94215E-02 6.98913E-03 2.18094E-01
 -1        56-3.74056E+00 6.46450E-01 3.23691E-01
 -1        57 4.38030E+00-9.69097E-01 3.39872E-01
 -1        58 4.84870E+00-1.59144E+00 2.64402E-01
 -1        59 4.70318E+00-9.11968E-01 4.66294E-15
 -1        60 4.99781E+00-8.49359E-01-6.59027E-02
 -1        61 3.31046E+00-7.17368E-01-1.73634E+00
 -1        62 4.50440E+00-1.30040E+00 3.17438E-01
 -1        63 3.64551E+00-1.16391E+00-1.33633E+00
 -1        64 4.65060E+00-9.22803E-01 1.42088E-01
 -1        65 5.02616E+00-1.18228E+00 6.29802E-02
 -1        66 3.48786E+00-6.76311E-01 2.17604E-14
 -1        67 4.75906E+00-9.01772E-01-2.75514E-02
 -1        68 3.69959E+00-6.41913E-01 3.36684E-01
 -1        69-1.11314E+00 2.44952E-01 2.68928E+00
 -1        70-1.22754E+00 3.97219E-01 2.08807E+00
 -1        71-1.19178E+00 2.31091E-01 1.77636E-14
 -1        72-1.26326E+00 2.15842E-01-5.21463E-01
 -1        73 2.49948E+00-5.42514E-01 2.17622E+00
 -1        74-1.14325E+00 3.25985E-01 2.51630E+00
 -1        75 2.75565E+00-8.83941E-01 1.67678E+00
 -1        76-1.17920E+00 2.33690E-01 1.11319E+00
 -1        77-1.27064E+00 2.97014E-01 4.81652E-01
 -1        78 2.63553E+00-5.11040E-01-4.66294E-15
 -1        79-1.20518E+00 2.28652E-01-2.15852E-01
 -1        80 2.79784E+00-4.84661E-01-4.21979E-01
 -1        81-4.16739E+00 9.17361E-01-9.56802E-01
 -1        82-4.59640E+00 1.48813E+00-7.38673E-01
 -1        83-4.46275E+00 8.65347E-01 1.59872E-14
 -1        84-4.73100E+00 8.08075E-01 1.85528E-01
 -1        85-3.99685E+00 8.64231E-01 1.22380E+00
 -1        86-4.27998E+00 1.22134E+00-8.99047E-01
 -1        87-4.39450E+00 1.39456E+00 9.44626E-01
 -1        88-4.41606E+00 8.75033E-01-3.84447E-01
 -1        89-4.75894E+00 1.11235E+00-1.54458E-01
 -1        90-4.20622E+00 8.15605E-01 1.95399E-14
 -1        91-4.51270E+00 8.56294E-01 7.45460E-02
 -1        92-4.45700E+00 7.75008E-01-2.37299E-01
 -1        93 1.91819E+00-4.40123E-01-2.17515E+00
 -1        94 2.17865E+00-7.82696E-01-1.67491E+00
 -1        95 2.10044E+00-4.07285E-01-1.77636E-15
 -1        96 2.26980E+00-3.71945E-01 4.21770E-01
 -1        97-1.60662E+00 3.40298E-01-2.34840E+00
 -1        98 1.98872E+00-6.22871E-01-2.04424E+00
 -1        99-1.73930E+00 5.18250E-01-1.80117E+00
 -1       100 2.06842E+00-4.13864E-01-8.67597E-01
 -1       101 2.28054E+00-5.57592E-01-3.41455E-01
 -1       102-1.67359E+00 3.24516E-01 2.22045E-15
 -1       103 2.13437E+00-4.01077E-01 1.68231E-01
 -1       104-1.75498E+00 3.11531E-01 4.55364E-01
 -1       105 2.74241E+00-6.58655E-01 2.37344E+00
 -1       106 3.21668E+00-1.27729E+00 1.88012E+00
 -1       107 3.07498E+00-5.96251E-01-1.26565E-14
 -1       108 3.39680E+00-5.31765E-01-4.60220E-01
 -1       109 3.90511E+00-8.74038E-01-1.40497E-01
 -1       110 2.88125E+00-9.87177E-01 2.18017E+00
 -1       111 4.39881E+00-1.52958E+00-8.59185E-02
 -1       112 3.00543E+00-6.10196E-01 1.09700E+00
 -1       113 3.40064E+00-8.77894E-01 5.90784E-01
 -1       114 4.18446E+00-8.11384E-01-2.09555E-14
 -1       115 3.14689E+00-5.82766E-01-2.12712E-01
 -1       116 4.50757E+00-7.57218E-01 2.72430E-02
 -1       117-5.80329E+00 1.09535E+00 4.49271E+00
 -1       118-5.73554E+00 1.08305E+00 3.55455E+00
 -1       119-5.73002E+00 1.11108E+00-2.42029E-14
 -1       120-5.64890E+00 1.12528E+00-8.71156E-01
 -1       121-1.09151E+00 1.49780E-01 3.95284E+00
 -1       122-5.77258E+00 1.08155E+00 4.08156E+00
 -1       123-8.49047E-01-1.59797E-01 3.12254E+00
 -1       124-5.77795E+00 1.10282E+00 2.16736E+00
 -1       125-5.69717E+00 1.11255E+00 1.22705E+00
 -1       126-9.43829E-01 1.83013E-01-4.84057E-14
 -1       127-5.68747E+00 1.12037E+00-4.20260E-01
 -1       128-7.72441E-01 2.11649E-01-7.66473E-01
 -1       129 0.00000E+00 0.00000E+00 0.00000E+00
 -1       130 0.00000E+00 0.00000E+00 0.00000E+00
 -1       131 4.73300E+00-1.01289E+00 4.60958E-01
 -1       132 4.86267E+00-4.56518E-01 4.52829E-01
 -1       133 0.00000E+00 0.00000E+00 0.00000E+00
 -1       134 0.00000E+00 0.00000E+00 0.00000E+00
 -1       135 4.93022E+00-9.83694E-01 1.90100E-02
 -1       136 5.09476E+00-6.82342E-01 3.35628E-02
 -1       137 0.00000E+00 0.00000E+00 0.00000E+00
 -1       138 2.72985E+00-5.25671E-01 1.06652E+00
 -1       139 4.74543E+00-7.44445E-01 4.59745E-01
 -1       140 2.73390E+00-5.97448E-01 1.19934E+00
 -1       141 1.42243E+00-3.01076E-01-2.86230E+00
 -1       142 1.46953E+00-1.37981E-01-3.30712E+00
 -1       143 1.49311E+00-2.90297E-01-1.19972E+00
 -1       144 1.54400E+00-2.11627E-01-1.65806E+00
 -1       145 4.42119E+00-9.29008E-01-1.48532E+00
 -1       146 1.41336E+00-2.26210E-01-3.10267E+00
 -1       147 4.58332E+00-3.96984E-01-1.72431E+00
 -1       148-4.29952E+00 9.55470E-01-4.55399E-01
 -1       149-4.51051E+00 2.12353E-01-5.28667E-01
 -1       150-4.57608E+00 9.08129E-01-1.99388E-01
 -1       151-4.82554E+00 5.20825E-01-2.74805E-01
 -1       152-2.29835E+00 5.05436E-01-2.31540E+00
 -1       153-4.29797E+00 6.04310E-01-4.93668E-01
 -1       154-2.41494E+00 1.09967E-01-2.65151E+00
 -1       155-3.24891E-02 8.37606E-03 2.73183E+00
 -1       156-3.55888E-02-3.33111E-03 3.13793E+00
 -1       157-3.60442E-02 7.64400E-03 1.12475E+00
 -1       158-4.02347E-02 9.30959E-04 1.54872E+00
 -1       159-3.33386E+00 7.25310E-01 1.66934E+00
 -1       160-3.31522E-02 2.66380E-03 2.95101E+00
 -1       161-3.49059E+00 2.02517E-01 1.90106E+00
 -1       162 4.38030E+00-9.69097E-01-3.39872E-01
 -1       163 4.58627E+00-2.38045E-01-3.91605E-01
 -1       164 4.65060E+00-9.22803E-01-1.42088E-01
 -1       165 4.89488E+00-5.40437E-01-1.95816E-01
 -1       166 3.31046E+00-7.17368E-01 1.73634E+00
 -1       167 4.37994E+00-6.23330E-01-3.67619E-01
 -1       168 3.46135E+00-2.14140E-01 1.97923E+00
 -1       169-1.11314E+00 2.44952E-01-2.68928E+00
 -1       170-1.16339E+00 6.63931E-02-3.09264E+00
 -1       171-1.17920E+00 2.33690E-01-1.11319E+00
 -1       172-1.23857E+00 1.40463E-01-1.53325E+00
 -1       173 2.49948E+00-5.42514E-01-2.17622E+00
 -1       174-1.11290E+00 1.60562E-01-2.90700E+00
 -1       175 2.61478E+00-1.57408E-01-2.48347E+00
 -1       176-4.16739E+00 9.17361E-01 9.56802E-01
 -1       177-4.35589E+00 2.47761E-01 1.09404E+00
 -1       178-4.41606E+00 8.75033E-01 3.84447E-01
 -1       179-4.63863E+00 5.25391E-01 5.28806E-01
 -1       180-3.99685E+00 8.64231E-01-1.22380E+00
 -1       181-4.16617E+00 6.00887E-01 1.03154E+00
 -1       182-4.17592E+00 2.67280E-01-1.39908E+00
 -1       183 1.91819E+00-4.40123E-01 2.17515E+00
 -1       184 2.03349E+00-3.40564E-02 2.48070E+00
 -1       185 2.06842E+00-4.13864E-01 8.67597E-01
 -1       186 2.20774E+00-2.00213E-01 1.19188E+00
 -1       187-1.60662E+00 3.40298E-01 2.34840E+00
 -1       188 1.91942E+00-2.47427E-01 2.34156E+00
 -1       189-1.66637E+00 1.42125E-01 2.66771E+00
 -1       190 2.74241E+00-6.58655E-01-2.37344E+00
 -1       191 2.95332E+00 8.09042E-02-2.78463E+00
 -1       192 3.00543E+00-6.10196E-01-1.09700E+00
 -1       193 3.26856E+00-2.14538E-01-1.51546E+00
 -1       194 3.90511E+00-8.74038E-01 1.40497E-01
 -1       195 2.75262E+00-3.06008E-01-2.58858E+00
 -1       196 4.12615E+00-1.23445E-01 1.27253E-01
 -1       197-5.80329E+00 1.09535E+00-4.49271E+00
 -1       198-5.74726E+00 1.14351E+00-5.26463E+00
 -1       199-5.77795E+00 1.10282E+00-2.16736E+00
 -1       200-5.70651E+00 1.12663E+00-2.96763E+00
 -1       201-1.09151E+00 1.49780E-01-3.95284E+00
 -1       202-5.77531E+00 1.12968E+00-4.89492E+00
 -1       203-9.79779E-01 5.14414E-01-4.62478E+00
 -1       204 0.00000E+00 0.00000E+00 0.00000E+00
 -1       205 4.86267E+00-4.56518E-01-4.52829E-01
 -1       206 0.00000E+00 0.00000E+00 0.00000E+00
 -1       207 5.22366E+00-9.17749E-01-8.93818E-02
 -1       208 0.00000E+00 0.00000E+00 0.00000E+00
 -1       209 2.73390E+00-5.97448E-01-1.19934E+00
 -1       210 4.74543E+00-7.44445E-01-4.59745E-01
 -1       211 0.00000E+00 0.00000E+00 0.00000E+00
 -1       212 5.09476E+00-6.82342E-01-3.35628E-02
 -1       213 0.00000E+00 0.00000E+00 0.00000E+00
 -1       214 2.71098E+00-5.29330E-01-2.06803E-01
 -1       215 5.07309E+00-9.55991E-01-3.68613E-03
 -1       216 1.46953E+00-1.37981E-01 3.30712E+00
 -1       217 1.55270E+00-2.75816E-01 5.55013E-01
 -1       218 4.58332E+00-3.96984E-01 1.72431E+00
 -1       219 1.41336E+00-2.26210E-01 3.10267E+00
 -1       220 1.54400E+00-2.11627E-01 1.65806E+00
 -1       221 4.79106E+00-8.57287E-01 2.88010E-01
 -1       222 1.49711E+00-2.89521E-01 2.32631E-01
 -1       223-4.51051E+00 2.12353E-01 5.28667E-01
 -1       224-4.92753E+00 8.33696E-01 8.83038E-02
 -1       225-2.41494E+00 1.09967E-01 2.65151E+00
 -1       226-4.29797E+00 6.04310E-01 4.93668E-01
 -1       227-4.82554E+00 5.20825E-01 2.74805E-01
 -1       228-2.60662E+00 4.45660E-01 4.48966E-01
 -1       229-4.68339E+00 8.87323E-01 3.86623E-02
 -1       230-3.55888E-02-3.33111E-03-3.13793E+00
 -1       231-4.31968E-02 6.29977E-03-5.29714E-01
 -1       232-3.49059E+00 2.02517E-01-1.90106E+00
 -1       233-3.31522E-02 2.66380E-03-2.95101E+00
 -1       234-4.02347E-02 9.30959E-04-1.54872E+00
 -1       235-3.74056E+00 6.46450E-01-3.23691E-01
 -1       236-3.94215E-02 6.98913E-03-2.18094E-01
 -1       237 4.58627E+00-2.38045E-01 3.91605E-01
 -1       238 4.99781E+00-8.49359E-01 6.59027E-02
 -1       239 3.46135E+00-2.14140E-01-1.97923E+00
 -1       240 4.37994E+00-6.23330E-01 3.67619E-01
 -1       241 4.89488E+00-5.40437E-01 1.95816E-01
 -1       242 3.69959E+00-6.41913E-01-3.36684E-01
 -1       243 4.75906E+00-9.01772E-01 2.75514E-02
 -1       244-1.16339E+00 6.63931E-02 3.09264E+00
 -1       245-1.26326E+00 2.15842E-01 5.21463E-01
 -1       246 2.61478E+00-1.57408E-01 2.48347E+00
 -1       247-1.11290E+00 1.60562E-01 2.90700E+00
 -1       248-1.23857E+00 1.40463E-01 1.53325E+00
 -1       249 2.79784E+00-4.84661E-01 4.21979E-01
 -1       250-1.20518E+00 2.28652E-01 2.15852E-01
 -1       251-4.35589E+00 2.47761E-01-1.09404E+00
 -1       252-4.73100E+00 8.08075E-01-1.85528E-01
 -1       253-4.17592E+00 2.67280E-01 1.39908E+00
 -1       254-4.16617E+00 6.00887E-01-1.03154E+00
 -1       255-4.63863E+00 5.25391E-01-5.28806E-01
 -1       256-4.45700E+00 7.75008E-01 2.37299E-01
 -1       257-4.51270E+00 8.56294E-01-7.45460E-02
 -1       258 2.03349E+00-3.40564E-02-2.48070E+00
 -1       259 2.26980E+00-3.71945E-01-4.21770E-01
 -1       260-1.66637E+00 1.42125E-01-2.66771E+00
 -1       261 1.91942E+00-2.47427E-01-2.34156E+00
 -1       262 2.20774E+00-2.00213E-01-1.19188E+00
 -1       263-1.75498E+00 3.11531E-01-4.55364E-01
 -1       264 2.13437E+00-4.01077E-01-1.68231E-01
 -1       265 2.95332E+00 8.09042E-02 2.78463E+00
 -1       266 3.39680E+00-5.31765E-01 4.60220E-01
 -1       267 4.12615E+00-1.23445E-01-1.27253E-01
 -1       268 2.75262E+00-3.06008E-01 2.58858E+00
 -1       269 3.26856E+00-2.14538E-01 1.51546E+00
 -1       270 4.50757E+00-7.57218E-01-2.72430E-02
 -1       271 3.14689E+00-5.82766E-01 2.12712E-01
 -1       272-5.74726E+00 1.14351E+00 5.26463E+00
 -1       273-5.64890E+00 1.12528E+00 8.71156E-01
 -1       274-9.79779E-01 5.14414E-01 4.62478E+00
 -1       275-5.77531E+00 1.12968E+00 4.89492E+00
 -1       276-5.70651E+00 1.12663E+00 2.96763E+00
 -1       277-7.72441E-01 2.11649E-01 7.66473E-01
 -1       278-5.68747E+00 1.12037E+00 4.20260E-01
 -1       279 0.00000E+00 0.00000E+00 0.00000E+00
 -1       280 5.05866E+00-1.46727E+00 3.05739E-01
 -1       281 0.00000E+00 0.00000E+00 0.00000E+00
 -1       282 5.19286E+00-1.17656E+00-1.49074E-01
 -1       283 0.00000E+00 0.00000E+00 0.00000E+00
 -1       284 2.70677E+00-4.57521E-01 8.09764E-01
 -1       285 4.84126E+00-1.25037E+00 4.82144E-01
 -1       286 1.52875E+00-4.43398E-01-2.23289E+00
 -1       287 1.57349E+00-3.41366E-01-5.37365E-01
 -1       288 4.78147E+00-1.41889E+00-1.16422E+00
 -1       289 1.43852E+00-3.78285E-01-2.67697E+00
 -1       290-4.77737E+00 1.58861E+00-3.56943E-01
 -1       291-4.95907E+00 1.17039E+00-9.73483E-02
 -1       292-2.55932E+00 8.54563E-01-1.79023E+00
 -1       293-4.42392E+00 1.29297E+00-4.21506E-01
 -1       294-3.97118E-02 1.79322E-02 2.11865E+00
 -1       295-4.23051E-02 1.23553E-02 4.80590E-01
 -1       296-3.68172E+00 1.18823E+00 1.28355E+00
 -1       297-3.53674E-02 1.33410E-02 2.55752E+00
 -1       298 4.84870E+00-1.59144E+00-2.64402E-01
 -1       299 5.02616E+00-1.18228E+00-6.29802E-02
 -1       300 3.64551E+00-1.16391E+00 1.33633E+00
 -1       301 4.50440E+00-1.30040E+00-3.17438E-01
 -1       302-1.22754E+00 3.97219E-01-2.08807E+00
 -1       303-1.27064E+00 2.97014E-01-4.81652E-01
 -1       304 2.75565E+00-8.83941E-01-1.67678E+00
 -1       305-1.14325E+00 3.25985E-01-2.51630E+00
 -1       306-4.59640E+00 1.48813E+00 7.38673E-01
 -1       307-4.75894E+00 1.11235E+00 1.54458E-01
 -1       308-4.39450E+00 1.39456E+00-9.44626E-01
 -1       309-4.27998E+00 1.22134E+00 8.99047E-01
 -1       310 2.17865E+00-7.82696E-01 1.67491E+00
 -1       311 2.28054E+00-5.57592E-01 3.41455E-01
 -1       312-1.73930E+00 5.18250E-01 1.80117E+00
 -1       313 1.98872E+00-6.22871E-01 2.04424E+00
 -1       314 3.21668E+00-1.27729E+00-1.88012E+00
 -1       315 3.40064E+00-8.77894E-01-5.90784E-01
 -1       316 4.39881E+00-1.52958E+00 8.59185E-02
 -1       317 2.88125E+00-9.87177E-01-2.18017E+00
 -1       318-5.73554E+00 1.08305E+00-3.55455E+00
 -1       319-5.69717E+00 1.11255E+00-1.22705E+00
 -1       320-8.49047E-01-1.59797E-01-3.12254E+00
 -1       321-5.77258E+00 1.08155E+00-4.08156E+00
 -3
    1PSTEP                        62           1           1          
    1PGM                1.000000E+00                                  
    1PGK                1.040845E+11                                  
    1PHID                         -1                                  
    1PSUBC                         0                                  
    1PMODE                        16                                  
  100CL  116 51346.77972         321                     2   16MODAL      1
 -4  STRESS      6    1
 -5  SXX         1    4    1    1
 -5  SYY         1    4    2    2
 -5  SZZ         1    4    3    3
 -5  SXY         1    4    1    2
 -5  SYZ         1    4    2    3
 -5  SZX         1    4    3    1
 -1         1-3.55382E+13-3.55382E+13-8.29229E+13 1.98357E+06-2.93016E+12 4.65899E+13
 -1         2-4.61004E+13-4.61005E+13-1.07568E+14-7.72579E+05-8.80196E+12 4.99661E+13
 -1         3 3.81313E+12 3.68371E+12 7.93719E+13 2.66306E+11-7.21117E+12 4.66187E+11
 -1         4 3.27072E+12 1.93275E+12 6.10227E+13-1.12089E+12-4.84801E+12 4.33492E+12
 -1         5 8.93908E+12 8.93908E+12 2.08579E+13 3.98433E+06-9.68864E+12 4.53933E+13
 -1         6-2.04636E-01-1.98893E-01-4.36371E-01 1.78798E-02-9.08325E+12 4.68440E+13
 -1         7-5.14160E-01-7.59613E-01-5.54199E-02 3.70308E-01-5.88870E+12 3.03691E+13
 -1         8-7.14288E+11-7.39382E+11-1.53906E+13-1.37339E+12-9.03957E+10 3.71893E+13
 -1         9-4.20166E+13-4.20166E+13-9.80387E+13 6.25192E+06-5.94969E+12 4.78398E+13
 -1        10-8.59535E+12-3.67128E+12-1.33602E+13-5.76915E+11-6.58459E+12 1.41689E+13
 -1        11 4.11215E+12 3.75266E+12 7.20111E+13-3.13496E+11-7.03653E+12 1.31833E+12
 -1        12-7.63901E+12-1.29536E+12-9.10092E+12 2.03477E+12-4.51190E+12 1.61270E+13
 -1        13-1.01830E+13-1.01830E+13-2.37602E+13 1.83352E+07-6.18109E+12 4.64118E+13
 -1        14-2.04884E+13-2.04884E+13-4.78061E+13-2.24823E+06-8.86722E+12 4.88439E+13
 -1        15-1.34967E+12-9.73499E+10 3.56981E+13 1.17673E+11-6.37114E+12 1.55634E+13
 -1        16-1.98380E+12-1.54274E+12 1.80297E+13-1.30592E+12-1.65615E+12 2.10859E+13
 -1        17 3.97279E+12 3.97280E+12 9.26982E+12 1.15945E+07-9.47104E+12 4.57299E+13
 -1        18-9.37500E-02-1.10107E-01 1.79443E-02 2.22107E-01-5.84554E+12 3.01465E+13
 -1        19 1.88766E+10 2.61707E+11-6.92202E+12-6.06859E+11-3.01782E+12 3.28571E+13
 -1        20 7.11876E+11 1.66668E+12 2.59061E+12 2.97526E+12-2.74741E+12 3.39579E+13
 -1        21-1.15291E+12 8.37657E+11 2.51470E+13-1.72220E+11 1.01456E+13-1.08771E+13
 -1        22-4.71838E+11 7.19766E+11 1.94090E+13 2.26975E+11 5.85695E+12-1.43373E+13
 -1        23 2.52502E-01-1.42198E+00-2.45972E-01 7.81525E-01 8.33929E+12-4.30072E+13
 -1        24-1.62425E+11 2.23555E+11-4.87611E+12 8.88168E+11 2.10912E+12-5.23228E+13
 -1        25 9.14291E+12 3.34699E+12 7.35370E+13 3.48407E+11 1.47536E+12-2.10090E+12
 -1        26-9.69801E+11 7.58424E+11 2.34233E+13-4.64174E+11 9.76213E+12-1.05604E+13
 -1        27 9.58441E+12 5.80901E+11 5.63621E+13-1.39611E+12 2.09485E+12-3.62014E+12
 -1        28 3.33495E+11 5.08849E+11 1.03560E+13-2.36107E+10 8.90039E+12-2.76167E+13
 -1        29 4.21420E+11 3.85279E+11 4.37285E+12 6.05903E+11 2.62114E+12-3.42874E+13
 -1        30 1.07544E-01-9.26529E-01-2.38541E-01 6.29791E-01 9.96961E+11-5.14151E+12
 -1        31-9.86681E+10-6.46661E+10-2.00807E+12 1.21765E+11 5.35499E+12-4.59009E+13
 -1        32-6.48996E+11-1.77285E+12-1.42591E+13-1.79680E+12 4.07373E+11-7.60870E+12
 -1        33-1.94304E+12-4.83280E+12-1.10653E+14 2.04175E+11 1.35772E+12-1.66602E+12
 -1        34-2.20464E+12-3.08413E+12-8.49938E+13-2.90482E+11 9.45552E+11-2.21555E+12
 -1        35 1.05994E+00-4.02283E-01-9.27124E-02-7.10907E-02 1.12027E+12-5.77742E+12
 -1        36 9.37101E+11 3.76763E+11 2.14560E+13-1.05297E+12 3.23049E+11-7.00200E+12
 -1        37-3.53920E+12-9.43171E+11-5.18909E+13-1.57880E+11 5.21381E+12-4.22207E+11
 -1        38-2.16043E+12-4.26279E+12-1.00690E+14 7.39121E+11 1.34926E+12-1.62920E+12
 -1        39-3.96359E+12 5.39295E+10-4.05688E+13 6.14954E+11 3.25393E+12-3.82547E+12
 -1        40-2.06464E+12-2.13890E+12-5.06104E+13-1.68230E+10 1.19174E+12-3.86994E+12
 -1        41-1.48563E+12-6.28932E+11-2.53460E+13-7.27217E+11 4.21730E+11-4.77809E+12
 -1        42 8.39203E-01-3.38684E-01 2.02393E-01 3.83881E-01 3.95845E+12-2.04144E+13
 -1        43 4.14742E+11 4.00343E+11 9.81358E+12 8.67595E+10 7.50399E+11-6.14599E+12
 -1        44 1.82885E+11 6.86265E+11 1.00619E+13 8.14218E+11 8.18678E+10-2.68885E+13
 -1        45-1.68818E+11-1.05304E+11-1.68337E+12-7.39154E+09-1.10522E+13 1.25652E+13
 -1        46-1.15402E+11-5.33526E+10-1.29563E+12 8.40537E+09-6.70083E+12 1.64252E+13
 -1        47 2.57116E+00-1.91399E+00 9.72412E-01 2.26220E-01-9.10885E+12 4.69760E+13
 -1        48 2.04190E+10 3.27346E+10 3.26412E+11 3.81195E+10-2.43645E+12 5.69983E+13
 -1        49-3.29318E+12-7.02963E+11-6.81323E+13-1.38729E+11-4.31704E+12 6.22145E+11
 -1        50-1.71154E+11-1.01567E+11-1.50529E+12-1.45736E+10-1.06039E+13 1.22079E+13
 -1        51-4.32063E+12 4.25696E+11-5.31573E+13 7.17974E+11-2.67615E+12 3.35699E+12
 -1        52-1.06555E+10-1.15118E+09-7.99292E+11-2.77850E+09-9.70316E+12 3.06668E+13
 -1        53 2.90722E+10 4.62985E+10-4.37317E+11 2.58290E+10-3.07569E+12 3.78619E+13
 -1        54 1.86938E+00-9.39880E-01 3.50647E-01 3.93677E-03-3.29205E+12 1.69777E+13
 -1        55 2.23218E+08 2.06615E+09 1.54986E+11 1.43292E+10-5.94643E+12 5.00410E+13
 -1        56 1.36308E+11 6.38563E+11 1.32111E+13 7.15452E+11-1.20637E+11 2.22638E+13
 -1        57 2.67523E+12 5.28817E+12 1.09794E+14-1.67167E+11 1.27530E+12-1.44650E+12
 -1        58 2.69508E+12 3.30710E+12 8.41799E+13 2.29944E+11 7.83075E+11-1.89835E+12
 -1        59 8.14551E+00 1.65940E+01 6.19272E+00 2.04745E+00 1.05056E+12-5.41791E+12
 -1        60-1.02540E+12-5.18738E+11-2.12896E+13 8.62112E+11 2.80483E+11-6.57694E+12
 -1        61 3.45395E+12 8.12789E+11 6.57873E+13 1.47040E+11-4.36185E+12 7.02086E+11
 -1        62 2.89622E+12 4.70083E+12 9.99024E+13-6.77337E+11 1.22993E+12-1.40620E+12
 -1        63 4.42036E+12-3.75859E+11 5.12587E+13-7.25895E+11-2.75776E+12 3.48946E+12
 -1        64 2.07887E+12 2.13017E+12 5.00046E+13 2.83689E+10 1.11946E+12-3.53702E+12
 -1        65 1.30832E+12 4.07560E+11 2.48293E+13 5.90348E+11 3.56378E+11-4.37152E+12
 -1        66 4.97003E+00 7.61118E+00 3.64288E+00 8.99063E-01-3.32305E+12 1.71376E+13
 -1        67-4.13048E+11-4.03102E+11-9.69610E+12-1.46304E+11 6.85844E+11-5.77324E+12
 -1        68-1.57603E+11-6.69737E+11-1.27565E+13-7.58313E+11-1.36138E+11 2.24949E+13
 -1        69-7.20197E+11-1.37220E+12-2.70144E+13 4.11849E+10 1.05971E+13-1.20234E+13
 -1        70-7.21157E+11-8.51200E+11-2.06897E+13-5.34308E+10 6.41134E+12-1.57127E+13
 -1        71-5.74551E+00-3.98781E+00-1.98518E+00-5.19089E-01 8.72898E+12-4.50169E+13
 -1        72 2.66075E+11 1.39649E+11 5.23821E+12-2.12398E+11 2.33138E+12-5.46511E+13
 -1        73 2.67585E+12 6.28860E+11 5.03302E+13 1.15166E+11 5.30963E+12-8.39089E+11
 -1        74-7.77780E+11-1.21829E+12-2.46010E+13 1.71632E+11 1.01827E+13-1.16763E+13
 -1        75 3.39233E+12-2.72542E+11 3.92340E+13-5.54015E+11 3.37683E+12-4.25757E+12
 -1        76-5.30626E+11-5.42080E+11-1.22366E+13-7.40431E+09 9.30074E+12-2.93688E+13
 -1        77-3.31596E+11-9.14442E+10-6.01488E+12-1.44039E+11 2.93923E+12-3.62784E+13
 -1        78-1.67725E-01 3.13860E+00 1.08813E+00 1.15692E+00 4.04037E+12-2.08369E+13
 -1        79 1.05112E+11 1.02891E+11 2.37273E+12 3.81854E+10 5.69474E+12-4.79656E+13
 -1        80-1.21939E+11-5.18860E+11-9.75924E+12-5.93931E+11 1.62703E+11-2.73827E+13
 -1        81-2.50984E+12-5.04938E+12-1.01223E+14 1.60333E+11-4.28678E+12 4.84244E+12
 -1        82-2.56222E+12-3.18156E+12-7.75350E+13-2.20133E+11-2.55165E+12 6.31570E+12
 -1        83 4.34570E+00-8.94867E-01 4.51447E-01 1.41000E+00-3.53506E+12 1.82309E+13
 -1        84 9.79098E+11 4.86670E+11 1.96276E+13-8.26865E+11-9.38970E+11 2.21077E+13
 -1        85-4.22810E+12-1.02688E+12-7.81460E+13-1.80951E+11 2.83284E+12-4.58183E+11
 -1        86-2.73236E+12-4.49022E+12-9.21438E+13 6.48903E+11-4.08634E+12 4.69452E+12
 -1        87-5.37869E+12 4.32852E+11-6.08469E+13 8.79353E+11 1.83601E+12-2.31730E+12
 -1        88-1.99327E+12-2.04509E+12-4.59505E+13-2.74461E+10-3.76386E+12 1.18839E+13
 -1        89-1.26972E+12-4.17768E+11-2.26582E+13-5.65224E+11-1.17241E+12 1.46581E+13
 -1        90-2.45496E+00-4.51794E+00-2.14520E+00 1.86722E-01 2.15098E+12-1.10930E+13
 -1        91 3.96552E+11 3.86503E+11 8.91001E+12 1.41545E+11-2.30434E+12 1.94109E+13
 -1        92 1.99117E+11 8.19847E+11 1.51529E+13 9.33199E+11 8.88437E+10-1.46095E+13
 -1        93 5.28916E+11 1.88979E+12 5.84895E+13-9.99412E+10-1.01540E+13 1.17793E+13
 -1        94 6.18321E+11 1.25456E+12 4.51050E+13 1.55211E+11-6.12881E+12 1.53084E+13
 -1        95-1.75183E+00 8.89343E-01-9.43237E-01-1.89453E-01-8.38939E+12 4.32656E+13
 -1        96-3.66438E+11-1.02559E+11-1.13414E+13 5.15415E+11-2.28406E+12 5.23661E+13
 -1        97-1.70201E+12-5.23601E+11-2.62535E+13-7.37591E+10-6.40112E+12 1.07563E+12
 -1        98 5.58076E+11 1.65447E+12 5.29179E+13-3.30649E+11-9.65408E+12 1.14999E+13
 -1        99-2.08978E+12 1.77144E+11-2.02353E+13 3.49750E+11-3.99268E+12 5.11405E+12
 -1       100 8.88679E+11 9.67562E+11 2.75112E+13 4.47247E+09-8.92829E+12 2.83222E+13
 -1       101 6.31602E+11 4.13893E+11 1.44522E+13 3.59717E+11-2.90253E+12 3.48660E+13
 -1       102 1.95416E+00 1.78183E+00 7.55798E-01 2.11197E-01-4.88990E+12 2.52181E+13
 -1       103-1.87614E+11-1.72319E+11-5.33455E+12-2.30653E+10-5.49180E+12 4.60448E+13
 -1       104 1.01529E+11 3.30027E+11 5.09067E+12 3.80389E+11-2.08569E+11 3.30117E+13
 -1       105 1.55666E+12 2.72894E+12 1.03192E+14-9.46094E+10 4.44854E+12-5.39406E+12
 -1       106 1.51647E+12 1.96556E+12 8.08897E+13 2.48351E+11 3.17356E+12-7.30661E+12
 -1       107 7.92908E+00 7.14896E+00 3.54503E+00-6.65079E+00 3.62133E+12-1.86759E+13
 -1       108-5.29153E+11-3.01843E+11-2.00094E+13 4.87918E+11 1.04593E+12-2.29419E+13
 -1       109 4.57805E+12 8.55382E+11 9.71526E+13 2.12311E+11-2.42843E+12 1.79732E+11
 -1       110 1.93618E+12 2.84979E+12 9.41741E+13-2.89602E+11 4.51150E+12-5.54073E+12
 -1       111 5.53716E+12-4.40583E+11 7.61865E+13-8.94918E+11-9.86858E+11 1.19485E+12
 -1       112 6.95508E+11 6.57305E+11 4.82221E+13 9.45119E+09 3.89509E+12-1.23194E+13
 -1       113 7.98140E+10-2.96557E+11 2.57815E+13 3.91918E+11 1.58838E+12-1.55047E+13
 -1       114 4.02100E+00 5.93208E+00 2.82355E+00-3.40936E+00-1.90224E+12 9.81017E+12
 -1       115-1.27454E+11-1.34862E+11-9.35047E+12-4.87415E+10 2.38879E+12-2.00877E+13
 -1       116-1.65862E+11-8.87704E+11-1.88383E+13-1.09493E+12-3.48508E+10 1.25239E+13
 -1       117-2.70072E+12-3.92653E+12-1.14471E+12-2.35511E+11 3.91629E+12-5.52401E+12
 -1       118-2.68422E+12 6.62696E+10 3.39714E+11 7.52291E+10 2.19160E+12-6.66386E+12
 -1       119-1.12727E+01-2.56970E+01-8.80750E+00 6.04193E+00 3.11085E+12-1.60432E+13
 -1       120 7.61371E+11 5.23682E+11 2.21964E+11 1.21457E+12 1.07113E+12-2.01970E+13
 -1       121-9.88061E+11-2.23203E+12 4.35400E+13-1.25821E+11 3.41505E+12 2.81231E+11
 -1       122-2.64955E+12-1.34678E+12-1.17769E+11 2.09003E+11 3.67430E+12-4.63835E+12
 -1       123-3.02101E+11-3.46292E+11 3.49697E+13 6.30647E+10 2.05558E+12-1.93020E+12
 -1       124-4.37297E+12-2.81189E+12-1.50699E+12-2.29292E+11 3.25508E+12-1.16572E+13
 -1       125-4.06541E+12-5.99289E+11-8.22710E+11 6.60426E+11 9.08255E+11-1.43320E+13
 -1       126-7.38708E+00-2.02301E+01-8.57312E+00 4.27862E-01 2.46555E+12-1.27153E+13
 -1       127 5.45238E+11 8.47938E+11 2.92213E+11 1.18250E+12 2.26038E+12-1.67870E+13
 -1       128 4.32800E+11 1.91589E+11-8.44259E+12 6.48884E+11-5.45320E+10-1.76120E+13
 -1       129 5.26355E+13 5.26355E+13 1.22817E+14 2.93785E+06-1.56147E+13 4.90495E+13
 -1       130 4.61004E+13 4.61005E+13 1.07568E+14 7.72579E+05-8.80196E+12 4.99661E+13
 -1       131-3.81313E+12-3.68371E+12-7.93719E+13-2.66306E+11-7.21117E+12 4.66187E+11
 -1       132-4.30510E+12-3.40173E+12-9.03804E+13-1.66014E+12 3.48001E+12 2.72008E+12
 -1       133 2.79097E+13 2.79097E+13 6.51224E+13 2.22871E+07-1.26135E+13 4.76407E+13
 -1       134 2.04884E+13 2.04884E+13 4.78061E+13 2.24823E+06-8.86722E+12 4.88439E+13
 -1       135 1.34967E+12 9.73499E+10-3.56981E+13-1.17673E+11-6.37114E+12 1.55634E+13
 -1       136 6.26642E+11 6.24965E+09-4.84560E+13-1.53428E+12 1.25432E+12 1.98980E+13
 -1       137 4.94030E+13 4.94029E+13 1.15273E+14 1.41288E+07-1.22875E+13 4.90871E+13
 -1       138 8.59535E+12 3.67128E+12 1.33602E+13 5.76915E+11-6.58459E+12 1.41689E+13
 -1       139-3.81180E+12-3.24648E+12-8.49030E+13-8.64223E+11-9.10436E+11 7.53972E+11
 -1       140 8.75787E+12 4.47478E+12 1.34793E+13 3.01369E+12-1.63410E+12 1.55690E+13
 -1       141 1.15291E+12-8.37657E+11-2.51470E+13 1.72220E+11 1.01456E+13-1.08771E+13
 -1       142 2.18668E+11-5.85874E+11-2.87465E+13 3.36172E+11-5.37219E+11-1.30975E+13
 -1       143-3.33495E+11-5.08849E+11-1.03560E+13 2.36107E+10 8.90039E+12-2.76167E+13
 -1       144-7.59962E+11-2.45922E+10-1.41532E+13 4.66202E+11 1.42947E+12-3.30327E+13
 -1       145-9.14291E+12-3.34699E+12-7.35370E+13-3.48407E+11 1.47536E+12-2.10090E+12
 -1       146 8.90325E+11-9.87499E+11-2.70155E+13-2.56288E+11 3.29153E+12-1.03293E+13
 -1       147-1.05674E+13-4.48842E+12-8.34776E+13-2.06777E+12-7.99768E+11-3.05886E+12
 -1       148 1.94304E+12 4.83280E+12 1.10653E+14-2.04175E+11 1.35772E+12-1.66602E+12
 -1       149 3.61968E+12 4.21349E+12 1.25884E+14-4.30232E+11-1.26657E+11-2.00764E+12
 -1       150 2.06464E+12 2.13890E+12 5.06104E+13 1.68230E+10 1.19174E+12-3.86994E+12
 -1       151 3.31945E+12 1.54864E+12 6.79003E+13-4.86203E+11 2.01822E+11-4.60773E+12
 -1       152 3.53920E+12 9.43171E+11 5.18909E+13 1.57880E+11 5.21381E+12-4.22207E+11
 -1       153 2.58267E+12 5.19452E+12 1.18771E+14 5.03834E+11 4.70686E+11-1.58656E+12
 -1       154 4.25155E+12 1.53902E+12 6.00862E+13 9.10805E+11-1.96667E+12-2.81317E+12
 -1       155 1.68818E+11 1.05304E+11 1.68337E+12 7.39154E+09-1.10522E+13 1.25652E+13
 -1       156 1.45918E+11 1.04024E+11 1.91895E+12 1.24492E+10 6.05696E+11 1.50085E+13
 -1       157 1.06555E+10 1.15118E+09 7.99292E+11 2.77850E+09-9.70316E+12 3.06668E+13
 -1       158 9.58358E+09 1.90522E+10 1.07806E+12 2.19746E+10-1.60327E+12 3.65473E+13
 -1       159 3.29318E+12 7.02963E+11 6.81323E+13 1.38729E+11-4.31704E+12 6.22145E+11
 -1       160 1.65871E+11 9.77878E+10 1.79913E+12-5.30424E+09-3.82438E+12 1.19224E+13
 -1       161 4.48669E+12 1.28208E+12 7.87310E+13 1.06339E+12 1.53252E+12 2.54091E+12
 -1       162-2.67523E+12-5.28817E+12-1.09794E+14 1.67167E+11 1.27530E+12-1.44650E+12
 -1       163-4.23828E+12-4.65151E+12-1.24678E+14 3.40569E+11-7.93008E+10-1.73114E+12
 -1       164-2.07887E+12-2.13017E+12-5.00046E+13-2.83689E+10 1.11946E+12-3.53702E+12
 -1       165-3.30479E+12-1.60647E+12-6.70260E+13 3.63536E+11 1.82420E+11-4.21748E+12
 -1       166-3.45395E+12-8.12789E+11-6.57873E+13-1.47040E+11-4.36185E+12 7.02086E+11
 -1       167-3.28675E+12-5.59533E+12-1.17714E+14-4.92374E+11 4.35516E+11-1.37247E+12
 -1       168-4.61429E+12-1.37600E+12-7.59191E+13-1.07512E+12 1.56713E+12 2.65084E+12
 -1       169 7.20197E+11 1.37220E+12 2.70144E+13-4.11849E+10 1.05971E+13-1.20234E+13
 -1       170 1.12050E+12 1.20831E+12 3.06433E+13-7.91361E+10-5.80717E+11-1.43569E+13
 -1       171 5.30626E+11 5.42080E+11 1.22366E+13 7.40431E+09 9.30074E+12-2.93688E+13
 -1       172 8.48429E+11 4.12003E+11 1.63981E+13-8.61330E+10 1.53618E+12-3.50098E+13
 -1       173-2.67585E+12-6.28860E+11-5.03302E+13-1.15166E+11 5.30963E+12-8.39089E+11
 -1       174 8.75401E+11 1.44711E+12 2.89470E+13 1.27000E+11 3.64033E+12-1.14042E+13
 -1       175-3.54757E+12-1.07314E+12-5.81093E+13-8.20549E+11-1.92505E+12-3.22951E+12
 -1       176 2.50984E+12 5.04938E+12 1.01223E+14-1.60333E+11-4.28678E+12 4.84244E+12
 -1       177 4.04446E+12 4.46263E+12 1.14837E+14-3.26037E+11 2.06056E+11 5.78097E+12
 -1       178 1.99327E+12 2.04509E+12 4.59505E+13 2.74461E+10-3.76386E+12 1.18839E+13
 -1       179 3.17831E+12 1.55144E+12 6.15588E+13-3.47906E+11-6.27690E+11 1.41568E+13
 -1       180 4.22810E+12 1.02688E+12 7.81460E+13 1.80951E+11 2.83284E+12-4.58183E+11
 -1       181 3.11419E+12 5.35272E+12 1.08474E+14 4.71843E+11-1.50101E+12 4.58890E+12
 -1       182 5.62454E+12 1.70072E+12 9.01201E+13 1.30241E+12-1.04569E+12-1.75852E+12
 -1       183-5.28916E+11-1.88979E+12-5.84895E+13 9.99412E+10-1.01540E+13 1.17793E+13
 -1       184-1.17217E+12-1.60174E+12-6.68047E+13 2.29882E+11 4.39008E+11 1.40349E+13
 -1       185-8.88679E+11-9.67562E+11-2.75112E+13-4.47247E+09-8.92829E+12 2.83222E+13
 -1       186-1.34764E+12-6.71115E+11-3.69052E+13 2.54585E+11-1.50469E+12 3.37001E+13
 -1       187 1.70201E+12 5.23601E+11 2.62535E+13 7.37591E+10-6.40112E+12 1.07563E+12
 -1       188-7.68464E+11-2.03825E+12-6.28763E+13-2.11533E+11-3.64120E+12 1.12289E+13
 -1       189 2.18168E+12 6.51110E+11 2.99704E+13 5.18014E+11 2.24389E+12 3.90476E+12
 -1       190-1.55666E+12-2.72894E+12-1.03192E+14 9.46094E+10 4.44854E+12-5.39406E+12
 -1       191-2.42701E+12-2.73022E+12-1.19805E+14 3.67831E+11-4.77260E+11-6.59870E+12
 -1       192-6.95508E+11-6.57305E+11-4.82221E+13-9.45119E+09 3.89509E+12-1.23194E+13
 -1       193-1.23440E+12-4.60475E+11-6.57443E+13 3.05843E+11 5.20208E+11-1.48982E+13
 -1       194-4.57805E+12-8.55382E+11-9.71526E+13-2.12311E+11-2.42843E+12 1.79732E+11
 -1       195-1.96797E+12-3.10462E+12-1.11921E+14-1.54303E+11 1.38376E+12-5.33361E+12
 -1       196-5.79227E+12-1.75624E+12-1.12839E+14-1.32546E+12 5.82490E+11 8.90548E+11
 -1       197 2.70072E+12 3.92653E+12 1.14471E+12 2.35511E+11 3.91629E+12-5.52401E+12
 -1       198 2.86725E+12 1.01018E+12-5.03149E+11 1.11421E+11 3.22423E+11-6.30142E+12
 -1       199 4.37297E+12 2.81189E+12 1.50699E+12 2.29292E+11 3.25508E+12-1.16572E+13
 -1       200 4.92577E+12 1.71378E+12 9.34449E+11 7.96249E+11 8.89847E+11-1.39713E+13
 -1       201 9.88061E+11 2.23203E+12-4.35400E+13 1.25821E+11 3.41505E+12 2.81231E+11
 -1       202 3.09806E+12 3.09021E+12 4.58490E+11 4.91459E+11 1.81383E+12-4.63478E+12
 -1       203 4.65248E+11 4.95085E+11-5.17934E+13 9.34048E+10-1.43841E+12-1.25270E+12
 -1       204-5.26355E+13-5.26355E+13-1.22817E+14-2.93785E+06-1.56147E+13 4.90495E+13
 -1       205 4.30510E+12 3.40173E+12 9.03804E+13 1.66014E+12 3.48001E+12 2.72008E+12
 -1       206-8.93908E+12-8.93908E+12-2.08579E+13-3.98433E+06-9.68864E+12 4.53933E+13
 -1       207 7.14288E+11 7.39382E+11 1.53906E+13 1.37339E+12-9.03957E+10 3.71893E+13
 -1       208-4.94030E+13-4.94029E+13-1.15273E+14-1.41288E+07-1.22875E+13 4.90871E+13
 -1       209-8.75787E+12-4.47478E+12-1.34793E+13-3.01369E+12-1.63410E+12 1.55690E+13
 -1       210 3.81180E+12 3.24648E+12 8.49030E+13 8.64223E+11-9.10436E+11 7.53972E+11
 -1       211-2.79097E+13-2.79097E+13-6.51224E+13-2.22871E+07-1.26135E+13 4.76407E+13
 -1       212-6.26642E+11-6.24965E+09 4.84560E+13 1.53428E+12 1.25432E+12 1.98980E+13
 -1       213-3.97279E+12-3.97280E+12-9.26982E+12-1.15945E+07-9.47104E+12 4.57299E+13
 -1       214-7.11876E+11-1.66668E+12-2.59061E+12-2.97526E+12-2.74741E+12 3.39579E+13
 -1       215-1.88766E+10-2.61707E+11 6.92202E+12 6.06859E+11-3.01782E+12 3.28571E+13
 -1       216-2.18668E+11 5.85874E+11 2.87465E+13-3.36172E+11-5.37219E+11-1.30975E+13
 -1       217 1.62425E+11-2.23555E+11 4.87611E+12-8.88168E+11 2.10912E+12-5.23228E+13
 -1       218 1.05674E+13 4.48842E+12 8.34776E+13 2.06777E+12-7.99768E+11-3.05886E+12
 -1       219-8.90325E+11 9.87499E+11 2.70155E+13 2.56288E+11 3.29153E+12-1.03293E+13
 -1       220 7.59962E+11 2.45922E+10 1.41532E+13-4.66202E+11 1.42947E+12-3.30327E+13
 -1       221 6.48996E+11 1.77285E+12 1.42591E+13 1.79680E+12 4.07373E+11-7.60870E+12
 -1       222 9.86681E+10 6.46661E+10 2.00807E+12-1.21765E+11 5.35499E+12-4.59009E+13
 -1       223-3.61968E+12-4.21349E+12-1.25884E+14 4.30232E+11-1.26657E+11-2.00764E+12
 -1       224-9.37101E+11-3.76763E+11-2.14560E+13 1.05297E+12 3.23049E+11-7.00200E+12
 -1       225-4.25155E+12-1.53902E+12-6.00862E+13-9.10805E+11-1.96667E+12-2.81317E+12
 -1       226-2.58267E+12-5.19452E+12-1.18771E+14-5.03834E+11 4.70686E+11-1.58656E+12
 -1       227-3.31945E+12-1.54864E+12-6.79003E+13 4.86203E+11 2.01822E+11-4.60773E+12
 -1       228-1.82885E+11-6.86265E+11-1.00619E+13-8.14218E+11 8.18678E+10-2.68885E+13
 -1       229-4.14742E+11-4.00343E+11-9.81358E+12-8.67595E+10 7.50399E+11-6.14599E+12
 -1       230-1.45918E+11-1.04024E+11-1.91895E+12-1.24492E+10 6.05696E+11 1.50085E+13
 -1       231-2.04190E+10-3.27346E+10-3.26412E+11-3.81195E+10-2.43645E+12 5.69983E+13
 -1       232-4.48669E+12-1.28208E+12-7.87310E+13-1.06339E+12 1.53252E+12 2.54091E+12
 -1       233-1.65871E+11-9.77878E+10-1.79913E+12 5.30424E+09-3.82438E+12 1.19224E+13
 -1       234-9.58358E+09-1.90522E+10-1.07806E+12-2.19746E+10-1.60327E+12 3.65473E+13
 -1       235-1.36308E+11-6.38563E+11-1.32111E+13-7.15452E+11-1.20637E+11 2.22638E+13
 -1       236-2.23218E+08-2.06615E+09-1.54986E+11-1.43292E+10-5.94643E+12 5.00410E+13
 -1       237 4.23828E+12 4.65151E+12 1.24678E+14-3.40569E+11-7.93008E+10-1.73114E+12
 -1       238 1.02540E+12 5.18738E+11 2.12896E+13-8.62112E+11 2.80483E+11-6.57694E+12
 -1       239 4.61429E+12 1.37600E+12 7.59191E+13 1.07512E+12 1.56713E+12 2.65084E+12
 -1       240 3.28675E+12 5.59533E+12 1.17714E+14 4.92374E+11 4.35516E+11-1.37247E+12
 -1       241 3.30479E+12 1.60647E+12 6.70260E+13-3.63536E+11 1.82420E+11-4.21748E+12
 -1       242 1.57603E+11 6.69737E+11 1.27565E+13 7.58313E+11-1.36138E+11 2.24949E+13
 -1       243 4.13048E+11 4.03102E+11 9.69610E+12 1.46304E+11 6.85844E+11-5.77324E+12
 -1       244-1.12050E+12-1.20831E+12-3.06433E+13 7.91361E+10-5.80717E+11-1.43569E+13
 -1       245-2.66075E+11-1.39649E+11-5.23821E+12 2.12398E+11 2.33138E+12-5.46511E+13
 -1       246 3.54757E+12 1.07314E+12 5.81093E+13 8.20549E+11-1.92505E+12-3.22951E+12
 -1       247-8.75401E+11-1.44711E+12-2.89470E+13-1.27000E+11 3.64033E+12-1.14042E+13
 -1       248-8.48429E+11-4.12003E+11-1.63981E+13 8.61330E+10 1.53618E+12-3.50098E+13
 -1       249 1.21939E+11 5.18860E+11 9.75924E+12 5.93931E+11 1.62703E+11-2.73827E+13
 -1       250-1.05112E+11-1.02891E+11-2.37273E+12-3.81854E+10 5.69474E+12-4.79656E+13
 -1       251-4.04446E+12-4.46263E+12-1.14837E+14 3.26037E+11 2.06056E+11 5.78097E+12
 -1       252-9.79098E+11-4.86670E+11-1.96276E+13 8.26865E+11-9.38970E+11 2.21077E+13
 -1       253-5.62454E+12-1.70072E+12-9.01201E+13-1.30241E+12-1.04569E+12-1.75852E+12
 -1       254-3.11419E+12-5.35272E+12-1.08474E+14-4.71843E+11-1.50101E+12 4.58890E+12
 -1       255-3.17831E+12-1.55144E+12-6.15588E+13 3.47906E+11-6.27690E+11 1.41568E+13
 -1       256-1.99117E+11-8.19847E+11-1.51529E+13-9.33199E+11 8.88437E+10-1.46095E+13
 -1       257-3.96552E+11-3.86503E+11-8.91001E+12-1.41545E+11-2.30434E+12 1.94109E+13
 -1       258 1.17217E+12 1.60174E+12 6.68047E+13-2.29882E+11 4.39008E+11 1.40349E+13
 -1       259 3.66438E+11 1.02559E+11 1.13414E+13-5.15415E+11-2.28406E+12 5.23661E+13
 -1       260-2.18168E+12-6.51110E+11-2.99704E+13-5.18014E+11 2.24389E+12 3.90476E+12
 -1       261 7.68464E+11 2.03825E+12 6.28763E+13 2.11533E+11-3.64120E+12 1.12289E+13
 -1       262 1.34764E+12 6.71115E+11 3.69052E+13-2.54585E+11-1.50469E+12 3.37001E+13
 -1       263-1.01529E+11-3.30027E+11-5.09067E+12-3.80389E+11-2.08569E+11 3.30117E+13
 -1       264 1.87614E+11 1.72319E+11 5.33455E+12 2.30653E+10-5.49180E+12 4.60448E+13
 -1       265 2.42701E+12 2.73022E+12 1.19805E+14-3.67831E+11-4.77260E+11-6.59870E+12
 -1       266 5.29153E+11 3.01843E+11 2.00094E+13-4.87918E+11 1.04593E+12-2.29419E+13
 -1       267 5.79227E+12 1.75624E+12 1.12839E+14 1.32546E+12 5.82490E+11 8.90548E+11
 -1       268 1.96797E+12 3.10462E+12 1.11921E+14 1.54303E+11 1.38376E+12-5.33361E+12
 -1       269 1.23440E+12 4.60475E+11 6.57443E+13-3.05843E+11 5.20208E+11-1.48982E+13
 -1       270 1.65862E+11 8.87704E+11 1.88383E+13 1.09493E+12-3.48508E+10 1.25239E+13
 -1       271 1.27454E+11 1.34862E+11 9.35047E+12 4.87415E+10 2.38879E+12-2.00877E+13
 -1       272-2.86725E+12-1.01018E+12 5.03149E+11-1.11421E+11 3.22423E+11-6.30142E+12
 -1       273-7.61371E+11-5.23682E+11-2.21964E+11-1.21457E+12 1.07113E+12-2.01970E+13
 -1       274-4.65248E+11-4.95085E+11 5.17934E+13-9.34048E+10-1.43841E+12-1.25270E+12
 -1       275-3.09806E+12-3.09021E+12-4.58490E+11-4.91459E+11 1.81383E+12-4.63478E+12
 -1       276-4.92577E+12-1.71378E+12-9.34449E+11-7.96249E+11 8.89847E+11-1.39713E+13
 -1       277-4.32800E+11-1.91589E+11 8.44259E+12-6.48884E+11-5.45320E+10-1.76120E+13
 -1       278-5.45238E+11-8.47938E+11-2.92213E+11-1.18250E+12 2.26038E+12-1.67870E+13
 -1       279 3.55382E+13 3.55382E+13 8.29229E+13-1.98357E+06-2.93016E+12 4.65899E+13
 -1       280-3.27072E+12-1.93275E+12-6.10227E+13 1.12089E+12-4.84801E+12 4.33492E+12
 -1       281 1.01830E+13 1.01830E+13 2.37602E+13-1.83352E+07-6.18109E+12 4.64118E+13
 -1       282 1.98380E+12 1.54274E+12-1.80297E+13 1.30592E+12-1.65615E+12 2.10859E+13
 -1       283 4.20166E+13 4.20166E+13 9.80387E+13-6.25192E+06-5.94969E+12 4.78398E+13
 -1       284 7.63901E+12 1.29536E+12 9.10092E+12-2.03477E+12-4.51190E+12 1.61270E+13
 -1       285-4.11215E+12-3.75266E+12-7.20111E+13 3.13496E+11-7.03653E+12 1.31833E+12
 -1       286 4.71838E+11-7.19766E+11-1.94090E+13-2.26975E+11 5.85695E+12-1.43373E+13
 -1       287-4.21420E+11-3.85279E+11-4.37285E+12-6.05903E+11 2.62114E+12-3.42874E+13
 -1       288-9.58441E+12-5.80901E+11-5.63621E+13 1.39611E+12 2.09485E+12-3.62014E+12
 -1       289 9.69801E+11-7.58424E+11-2.34233E+13 4.64174E+11 9.76213E+12-1.05604E+13
 -1       290 2.20464E+12 3.08413E+12 8.49938E+13 2.90482E+11 9.45552E+11-2.21555E+12
 -1       291 1.48563E+12 6.28932E+11 2.53460E+13 7.27217E+11 4.21730E+11-4.77809E+12
 -1       292 3.96359E+12-5.39295E+10 4.05688E+13-6.14954E+11 3.25393E+12-3.82547E+12
 -1       293 2.16043E+12 4.26279E+12 1.00690E+14-7.39121E+11 1.34926E+12-1.62920E+12
 -1       294 1.15402E+11 5.33526E+10 1.29563E+12-8.40537E+09-6.70083E+12 1.64252E+13
 -1       295-2.90722E+10-4.62985E+10 4.37317E+11-2.58290E+10-3.07569E+12 3.78619E+13
 -1       296 4.32063E+12-4.25696E+11 5.31573E+13-7.17974E+11-2.67615E+12 3.35699E+12
 -1       297 1.71154E+11 1.01567E+11 1.50529E+12 1.45736E+10-1.06039E+13 1.22079E+13
 -1       298-2.69508E+12-3.30710E+12-8.41799E+13-2.29944E+11 7.83075E+11-1.89835E+12
 -1       299-1.30832E+12-4.07560E+11-2.48293E+13-5.90348E+11 3.56378E+11-4.37152E+12
 -1       300-4.42036E+12 3.75859E+11-5.12587E+13 7.25895E+11-2.75776E+12 3.48946E+12
 -1       301-2.89622E+12-4.70083E+12-9.99024E+13 6.77337E+11 1.22993E+12-1.40620E+12
 -1       302 7.21157E+11 8.51200E+11 2.06897E+13 5.34308E+10 6.41134E+12-1.57127E+13
 -1       303 3.31596E+11 9.14442E+10 6.01488E+12 1.44039E+11 2.93923E+12-3.62784E+13
 -1       304-3.39233E+12 2.72542E+11-3.92340E+13 5.54015E+11 3.37683E+12-4.25757E+12
 -1       305 7.77780E+11 1.21829E+12 2.46010E+13-1.71632E+11 1.01827E+13-1.16763E+13
 -1       306 2.56222E+12 3.18156E+12 7.75350E+13 2.20133E+11-2.55165E+12 6.31570E+12
 -1       307 1.26972E+12 4.17768E+11 2.26582E+13 5.65224E+11-1.17241E+12 1.46581E+13
 -1       308 5.37869E+12-4.32852E+11 6.08469E+13-8.79353E+11 1.83601E+12-2.31730E+12
 -1       309 2.73236E+12 4.49022E+12 9.21438E+13-6.48903E+11-4.08634E+12 4.69452E+12
 -1       310-6.18321E+11-1.25456E+12-4.51050E+13-1.55211E+11-6.12881E+12 1.53084E+13
 -1       311-6.31602E+11-4.13893E+11-1.44522E+13-3.59717E+11-2.90253E+12 3.48660E+13
 -1       312 2.08978E+12-1.77144E+11 2.02353E+13-3.49750E+11-3.99268E+12 5.11405E+12
 -1       313-5.58076E+11-1.65447E+12-5.29179E+13 3.30649E+11-9.65408E+12 1.14999E+13
 -1       314-1.51647E+12-1.96556E+12-8.08897E+13-2.48351E+11 3.17356E+12-7.30661E+12
 -1       315-7.98140E+10 2.96557E+11-2.57815E+13-3.91918E+11 1.58838E+12-1.55047E+13
 -1       316-5.53716E+12 4.40583E+11-7.61865E+13 8.94918E+11-9.86858E+11 1.19485E+12
 -1       317-1.93618E+12-2.84979E+12-9.41741E+13 2.89602E+11 4.51150E+12-5.54073E+12
 -1       318 2.68422E+12-6.62696E+10-3.39714E+11-7.52291E+10 2.19160E+12-6.66386E+12
 -1       319 4.06541E+12 5.99289E+11 8.22710E+11-6.60426E+11 9.08255E+11-1.43320E+13
 -1       320 3.02101E+11 3.46292E+11-3.49697E+13-6.30647E+10 2.05558E+12-1.93020E+12
 -1       321 2.64955E+12 1.34678E+12 1.17769E+11-2.09003E+11 3.67430E+12-4.63835E+12
 -3
    1PSTEP                        63           1           1          
    1PGM                1.000000E+00                                  
    1PGK                1.040845E+11                                  
    1PHID                         -1                                  
    1PSUBC                         0                                  
    1PMODE                        16                                  
  100CL  116 51346.77972         321                     2   16MODAL      1
 -4  TOSTRAIN    6    1
 -5  EXX         1    4    1    1
 -5  EYY         1    4    2    2
 -5  EZZ         1    4    3    3
 -5  EXY         1    4    1    2
 -5  EYZ         1    4    2    3
 -5  EZX         1    4    3    1
 -1         1 4.55842E-04 4.15486E-04-2.93333E+02 1.22792E-05-1.81391E+01 2.88414E+02
 -1         2 5.76585E-04 5.23221E-04-3.80513E+02-4.78263E-06-5.44883E+01 3.09314E+02
 -1         3-1.00493E+02-1.01294E+02 3.67252E+02 1.64856E+00-4.46406E+01 2.88592E+00
 -1         4-7.43614E+01-8.26441E+01 2.83151E+02-6.93884E+00-3.00115E+01 2.68352E+01
 -1         5-1.01455E-04-1.11802E-04 7.37832E+01 2.46649E-05-5.99773E+01 2.81006E+02
 -1         6-6.90559E-14-4.20219E-14-1.48681E-12 1.10668E-13-5.62297E+01 2.89987E+02
 -1         7-1.28364E-12-2.80254E-12 1.57171E-12 2.29228E-12-3.64539E+01 1.87999E+02
 -1         8 1.96414E+01 1.94861E+01-7.12117E+01-8.50192E+00-5.59592E-01 2.30220E+02
 -1         9-2.34305E-04 9.03847E-05-3.46804E+02 3.87024E-05-3.68314E+01 2.96151E+02
 -1        10-1.65995E+01 1.38828E+01-4.60964E+01-3.57138E+00-4.07617E+01 8.77122E+01
 -1        11-8.86523E+01-9.08778E+01 3.31675E+02-1.94069E+00-4.35595E+01 8.16106E+00
 -1        12-2.15244E+01 1.77458E+01-3.05743E+01 1.25962E+01-2.79308E+01 9.98340E+01
 -1        13-3.58710E-04-1.16474E-04-8.40496E+01 1.13503E-04-3.82639E+01 2.87311E+02
 -1        14-3.28871E-04-1.67825E-04-1.69110E+02-1.39176E-05-5.48923E+01 3.02367E+02
 -1        15-5.72853E+01-4.95328E+01 1.72058E+02 7.28449E-01-3.94404E+01 9.63450E+01
 -1        16-3.29995E+01-3.02691E+01 9.08936E+01-8.08424E+00-1.02524E+01 1.30532E+02
 -1        17 3.25421E-05 6.37694E-05 3.27912E+01 7.17758E-05-5.86302E+01 2.83090E+02
 -1        18-3.11751E-13-4.23661E-13 3.86136E-13 1.37756E-12-3.61867E+01 1.86621E+02
 -1        19 9.60463E+00 1.11079E+01-3.33629E+01-3.75674E+00-1.86817E+01 2.03401E+02
 -1        20-2.69194E+00 3.21872E+00 8.93829E+00 1.84183E+01-1.70078E+01 2.10216E+02
 -1        21-4.26110E+01-3.02884E+01 1.20198E+02-1.06612E+00 6.28062E+01-6.73344E+01
 -1        22-3.10022E+01-2.36256E+01 9.20695E+01 1.40509E+00 3.62573E+01-8.87549E+01
 -1        23 3.58069E-12-6.78035E-12 5.08815E-13 4.83830E-12 5.16242E+01-2.66235E+02
 -1        24 5.87305E+00 8.26245E+00-2.33069E+01 5.49819E+00 1.30564E+01-3.23903E+02
 -1        25-6.62966E+01-1.02176E+02 3.32334E+02 2.15680E+00 9.13318E+00-1.30056E+01
 -1        26-3.91634E+01-2.84648E+01 1.11841E+02-2.87346E+00 6.04323E+01-6.53739E+01
 -1        27-3.57071E+01-9.14431E+01 2.53869E+02-8.64258E+00 1.29681E+01-2.24104E+01
 -1        28-1.39331E+01-1.28476E+01 4.81108E+01-1.46162E-01 5.50977E+01-1.70960E+02
 -1        29-4.79056E+00-5.01429E+00 1.96707E+01 3.75083E+00 1.62261E+01-2.12255E+02
 -1        30 2.17826E-12-4.22767E-12 3.83027E-14 3.89822E-12 6.17166E+00-3.18284E+01
 -1        31 2.49120E+00 2.70169E+00-9.32889E+00 7.53782E-01 3.31500E+01-2.84149E+02
 -1        32 1.98124E+01 1.28552E+01-6.44409E+01-1.11230E+01 2.52183E+00-4.71015E+01
 -1        33 1.55727E+02 1.37838E+02-5.17237E+02 1.26394E+00 8.40493E+00-1.03135E+01
 -1        34 1.15327E+02 1.09883E+02-3.97177E+02-1.79822E+00 5.85342E+00-1.37153E+01
 -1        35 5.74607E-12-3.29214E-12-1.35804E-12-4.41092E-13 6.93499E+00-3.57650E+01
 -1        36-2.67273E+01-3.01961E+01 1.00295E+02-6.51836E+00 1.99983E+00-4.33457E+01
 -1        37 5.86239E+01 7.46946E+01-2.40696E+02-9.77354E-01 3.22759E+01-2.61366E+00
 -1        38 1.39645E+02 1.26630E+02-4.70299E+02 4.57551E+00 8.35259E+00-1.00855E+01
 -1        39 3.90041E+01 6.38745E+01-1.87599E+02 3.80686E+00 2.01434E+01-2.36815E+01
 -1        40 6.55245E+01 6.50648E+01-2.34997E+02-1.04143E-01 7.37741E+00-2.39568E+01
 -1        41 3.00325E+01 3.53359E+01-1.17674E+02-4.50182E+00 2.61071E+00-2.95786E+01
 -1        42 4.19043E-12-3.10052E-12 2.52687E-13 2.37743E-12 2.45047E+01-1.26375E+02
 -1        43-1.26164E+01-1.27055E+01 4.55669E+01 5.37082E-01 4.64533E+00-3.80466E+01
 -1        44-1.44836E+01-1.13674E+01 4.66720E+01 5.04039E+00 5.06801E-01-1.66453E+02
 -1        45 1.75135E+00 2.14453E+00-7.62443E+00-4.57571E-02-6.84185E+01 7.77846E+01
 -1        46 1.37759E+00 1.76170E+00-5.92860E+00 5.20332E-02-4.14813E+01 1.01680E+02
 -1        47 1.35851E-11-1.41784E-11 3.68661E-12 1.40093E-12-5.63881E+01 2.90804E+02
 -1        48-4.15834E-01-3.39594E-01 1.47841E+00 2.35978E-01-1.50828E+01 3.52846E+02
 -1        49 8.26542E+01 9.86889E+01-3.18731E+02-8.58800E-01-2.67245E+01 3.85138E+00
 -1        50 1.48050E+00 1.91127E+00-6.77846E+00-9.02172E-02-6.56432E+01 7.55725E+01
 -1        51 5.47564E+01 8.41384E+01-2.47566E+02 4.44460E+00-1.65666E+01 2.07814E+01
 -1        52 1.09275E+00 1.15159E+00-3.78929E+00-1.72003E-02-6.00672E+01 1.89842E+02
 -1        53 6.97037E-01 8.03676E-01-2.19013E+00 1.59894E-01-1.90400E+01 2.34383E+02
 -1        54 9.74465E-12-7.65099E-12 3.43836E-13 2.52021E-14-2.03793E+01 1.05100E+02
 -1        55-2.23298E-01-2.11889E-01 7.34759E-01 8.87048E-02-3.68113E+01 3.09777E+02
 -1        56-1.91362E+01-1.60270E+01 6.18033E+01 4.42899E+00-7.46798E-01 1.37823E+02
 -1        57-1.51664E+02-1.35489E+02 5.11454E+02-1.03484E+00 7.89470E+00-8.95454E+00
 -1        58-1.12148E+02-1.08359E+02 3.92282E+02 1.42346E+00 4.84761E+00-1.17517E+01
 -1        59 6.22657E-12 5.85361E-11-5.83352E-12 1.26757E-11 6.50345E+00-3.35395E+01
 -1        60 2.62719E+01 2.94084E+01-9.91732E+01 5.33688E+00 1.73632E+00-4.07144E+01
 -1        61-7.86956E+01-9.50457E+01 3.07178E+02 9.10248E-01-2.70019E+01 4.34625E+00
 -1        62-1.35642E+02-1.24470E+02 4.64873E+02-4.19304E+00 7.61385E+00-8.70508E+00
 -1        63-5.16405E+01-8.13314E+01 2.38311E+02-4.49364E+00-1.70718E+01 2.16014E+01
 -1        64-6.45788E+01-6.42613E+01 2.32104E+02 1.75617E-01 6.92997E+00-2.18959E+01
 -1        65-2.98225E+01-3.53987E+01 1.15783E+02 3.65454E+00 2.20615E+00-2.70618E+01
 -1        66 7.58993E-12 2.39335E-11-6.20837E-13 5.56644E-12-2.05713E+01 1.06090E+02
 -1        67 1.24605E+01 1.25221E+01-4.50060E+01-9.05690E-01 4.24570E+00-3.57391E+01
 -1        68 1.84298E+01 1.52594E+01-5.95631E+01-4.69432E+00-8.42756E-01 1.39254E+02
 -1        69 3.71228E+01 3.30866E+01-1.25651E+02 2.54954E-01 6.56010E+01-7.44303E+01
 -1        70 2.73386E+01 2.65335E+01-9.62759E+01-3.30762E-01 3.96892E+01-9.72689E+01
 -1        71-1.88298E-11-7.94423E-12 4.43740E-12-3.21307E-12 5.40365E+01-2.78676E+02
 -1        72-6.41564E+00-7.19827E+00 2.43643E+01-1.31484E+00 1.44324E+01-3.38316E+02
 -1        73-6.00564E+01-7.27283E+01 2.34946E+02 7.12931E-01 3.28691E+01-5.19436E+00
 -1        74 3.31810E+01 3.04540E+01-1.14296E+02 1.06248E+00 6.30360E+01-7.22818E+01
 -1        75-3.95053E+01-6.21926E+01 1.82372E+02-3.42962E+00 2.09042E+01-2.63564E+01
 -1        76 1.57285E+01 1.56576E+01-5.67371E+01-4.58362E-02 5.75760E+01-1.81807E+02
 -1        77 7.14428E+00 8.63094E+00-2.80379E+01-8.91671E-01 1.81952E+01-2.24580E+02
 -1        78-6.83698E-12 1.36332E-11 9.46118E-13 7.16194E-12 2.50118E+01-1.28990E+02
 -1        79-3.03607E+00-3.04982E+00 1.10016E+01 2.36386E-01 3.52532E+01-2.96930E+02
 -1        80 1.41023E+01 1.16452E+01-4.55571E+01-3.67672E+00 1.00721E+00-1.69512E+02
 -1        81 1.39866E+02 1.24145E+02-4.71215E+02 9.92535E-01-2.65372E+01 2.99770E+01
 -1        82 1.03108E+02 9.92743E+01-3.61009E+02-1.36273E+00-1.57960E+01 3.90972E+01
 -1        83 2.13212E-11-1.11182E-11-2.76609E-12 8.72846E-12-2.18837E+01 1.12858E+02
 -1        84-2.40722E+01-2.71206E+01 9.13706E+01-5.11868E+00-5.81267E+00 1.36857E+02
 -1        85 9.29704E+01 1.12787E+02-3.64617E+02-1.12018E+00 1.75366E+01-2.83637E+00
 -1        86 1.25037E+02 1.14155E+02-4.28462E+02 4.01702E+00-2.52964E+01 2.90613E+01
 -1        87 6.06930E+01 9.66692E+01-2.82682E+02 5.44362E+00 1.13658E+01-1.43452E+01
 -1        88 5.90734E+01 5.87526E+01-2.13043E+02-1.69905E-01-2.33001E+01 7.35670E+01
 -1        89 2.69194E+01 3.21934E+01-1.05486E+02-3.49900E+00-7.25775E+00 9.07408E+01
 -1        90-2.16938E-12-1.49445E-11-2.59348E-13 1.15552E-12 1.33156E+01-6.86709E+01
 -1        91-1.13924E+01-1.14546E+01 4.13100E+01 8.76228E-01-1.42650E+01 1.20163E+02
 -1        92-2.18700E+01-1.80274E+01 7.07008E+01 5.77695E+00 5.49985E-01-9.04395E+01
 -1        93-8.37374E+01-7.53130E+01 2.75066E+02-6.18684E-01-6.28582E+01 7.29194E+01
 -1        94-6.32835E+01-5.93449E+01 2.12110E+02 9.60827E-01-3.79403E+01 9.47665E+01
 -1        95-8.27027E-12 8.09419E-12-3.26028E-12-1.17367E-12-5.19343E+01 2.67835E+02
 -1        96 1.46035E+01 1.62370E+01-5.33365E+01 3.19066E+00-1.41394E+01 3.24171E+02
 -1        97 3.01482E+01 3.74431E+01-1.21837E+02-4.56604E-01-3.96260E+01 6.65867E+00
 -1        98-7.53030E+01-6.85158E+01 2.48829E+02-2.04688E+00-5.97633E+01 7.11901E+01
 -1        99 1.87032E+01 3.27365E+01-9.36262E+01 2.16512E+00-2.47166E+01 3.16584E+01
 -1       100-3.64522E+01-3.59639E+01 1.28354E+02 2.76867E-02-5.52704E+01 1.75328E+02
 -1       101-1.82297E+01-1.95774E+01 6.73265E+01 2.22682E+00-1.79680E+01 2.15837E+02
 -1       102 5.67990E-12 4.61009E-12-1.73439E-12 1.30773E-12-3.02708E+01 1.56112E+02
 -1       103 6.97355E+00 7.06824E+00-2.48884E+01-1.42785E-01-3.39969E+01 2.85039E+02
 -1       104-7.26038E+00-5.84587E+00 2.36248E+01 2.35479E+00-1.29114E+00 2.04358E+02
 -1       105-1.43903E+02-1.36647E+02 4.85270E+02-5.85677E-01 2.75386E+01-3.33918E+01
 -1       106-1.11143E+02-1.08363E+02 3.80215E+02 1.53741E+00 1.96459E+01-4.52314E+01
 -1       107 2.24807E-11 1.76437E-11-4.64961E-12-4.11710E-11 2.24178E+01-1.15613E+02
 -1       108 2.64964E+01 2.79035E+01-9.40959E+01 3.02044E+00 6.47482E+00-1.42021E+02
 -1       109-1.18211E+02-1.41256E+02 4.54869E+02 1.31431E+00-1.50332E+01 1.11263E+00
 -1       110-1.29386E+02-1.23730E+02 4.41611E+02-1.79277E+00 2.79283E+01-3.42998E+01
 -1       111-8.18410E+01-1.18846E+02 3.55512E+02-5.53997E+00-6.10912E+00 7.39670E+00
 -1       112-6.65158E+01-6.67523E+01 2.27696E+02 5.85074E-02 2.41125E+01-7.62633E+01
 -1       113-3.60270E+01-3.83569E+01 1.23079E+02 2.42616E+00 9.83280E+00-9.59815E+01
 -1       114 6.64357E-12 1.84741E-11-7.90035E-13-2.11053E-11-1.17757E+01 6.07296E+01
 -1       115 1.29436E+01 1.28977E+01-4.41513E+01-3.01733E-01 1.47878E+01-1.24352E+02
 -1       116 2.73902E+01 2.29217E+01-8.82012E+01-6.77812E+00-2.15743E-01 7.75287E+01
 -1       117-5.61597E+00-1.32043E+01 4.01651E+00-1.45793E+00 2.42437E+01-3.41962E+01
 -1       118-1.33620E+01 3.66486E+00 5.35762E+00 4.65704E-01 1.35671E+01-4.12525E+01
 -1       119-4.38938E-12-9.36771E-11 1.08660E-11 3.74021E-11 1.92576E+01-9.93151E+01
 -1       120 2.56037E+00 1.08896E+00-7.78819E-01 7.51879E+00 6.63080E+00-1.25029E+02
 -1       121-6.37164E+01-7.14171E+01 2.11933E+02-7.78895E-01 2.11408E+01 1.74096E+00
 -1       122-1.05247E+01-2.45994E+00 5.14824E+00 1.29383E+00 2.27457E+01-2.87136E+01
 -1       123-5.09005E+01-5.11741E+01 1.67449E+02 3.90400E-01 1.27250E+01-1.19489E+01
 -1       124-1.46538E+01-4.99000E+00 3.08792E+00-1.41943E+00 2.01505E+01-7.21634E+01
 -1       125-1.73277E+01 4.12928E+00 2.74619E+00 4.08835E+00 5.62253E+00-8.87220E+01
 -1       126 5.97344E-12-7.35389E-11-1.36530E-12 2.64887E-12 1.52630E+01-7.87138E+01
 -1       127 9.67582E-01 2.84144E+00-5.98761E-01 7.32025E+00 1.39928E+01-1.03920E+02
 -1       128 1.38481E+01 1.23549E+01-4.10948E+01 4.01690E+00-3.37579E-01-1.09027E+02
 -1       129-6.58883E-04-6.31636E-04 4.34454E+02 1.81867E-05-9.66626E+01 3.03640E+02
 -1       130-5.76585E-04-5.23221E-04 3.80513E+02 4.78263E-06-5.44883E+01 3.09314E+02
 -1       131 1.00493E+02 1.01294E+02-3.67252E+02-1.64856E+00-4.46406E+01 2.88592E+00
 -1       132 1.13474E+02 1.19066E+02-4.19373E+02-1.02771E+01 2.15429E+01 1.68386E+01
 -1       133 3.50317E-04 2.19990E-04 2.30365E+02 1.37968E-04-7.80833E+01 2.94919E+02
 -1       134 3.28871E-04 1.67825E-04 1.69110E+02 1.39176E-05-5.48923E+01 3.02367E+02
 -1       135 5.72853E+01 4.95328E+01-1.72058E+02-7.28449E-01-3.94404E+01 9.63450E+01
 -1       136 7.21980E+01 6.83575E+01-2.31647E+02-9.49793E+00 7.76486E+00 1.23178E+02
 -1       137 2.99546E-04 4.70988E-05 4.07770E+02 8.74637E-05-7.60655E+01 3.03872E+02
 -1       138 1.65995E+01-1.38828E+01 4.60964E+01 3.57138E+00-4.07617E+01 8.77122E+01
 -1       139 1.07776E+02 1.11276E+02-3.94217E+02-5.34995E+00-5.63603E+00 4.66744E+00
 -1       140 1.60554E+01-1.04589E+01 4.52835E+01 1.86562E+01-1.01158E+01 9.63796E+01
 -1       141 4.26110E+01 3.02884E+01-1.20198E+02 1.06612E+00 6.28062E+01-6.73344E+01
 -1       142 4.29447E+01 3.79642E+01-1.36364E+02 2.08107E+00-3.32564E+00-8.10796E+01
 -1       143 1.39331E+01 1.28476E+01-4.81108E+01 1.46162E-01 5.50977E+01-1.70960E+02
 -1       144 1.66351E+01 2.11873E+01-6.62752E+01 2.88602E+00 8.84909E+00-2.04488E+02
 -1       145 6.62966E+01 1.02176E+02-3.32334E+02-2.15680E+00 9.13318E+00-1.30056E+01
 -1       146 4.42440E+01 3.26194E+01-1.28507E+02-1.58655E+00 2.03762E+01-6.39435E+01
 -1       147 7.53449E+01 1.12977E+02-3.76004E+02-1.28005E+01-4.95095E+00-1.89358E+01
 -1       148-1.55727E+02-1.37838E+02 5.17237E+02-1.26394E+00 8.40493E+00-1.03135E+01
 -1       149-1.68617E+02-1.64941E+02 5.88257E+02-2.66334E+00-7.84070E-01-1.24283E+01
 -1       150-6.55245E+01-6.50648E+01 2.34997E+02 1.04143E-01 7.37741E+00-2.39568E+01
 -1       151-8.34059E+01-9.43680E+01 3.16380E+02-3.00983E+00 1.24937E+00-2.85240E+01
 -1       152-5.86239E+01-7.46946E+01 2.40696E+02 9.77354E-01 3.22759E+01-2.61366E+00
 -1       153-1.64795E+02-1.48626E+02 5.54465E+02 3.11897E+00 2.91377E+00-9.82158E+00
 -1       154-6.77906E+01-8.45824E+01 2.77853E+02 5.63832E+00-1.21746E+01-1.74149E+01
 -1       155-1.75135E+00-2.14453E+00 7.62443E+00 4.57571E-02-6.84185E+01 7.77846E+01
 -1       156-2.19512E+00-2.45447E+00 8.78082E+00 7.70662E-02 3.74954E+00 9.29096E+01
 -1       157-1.09275E+00-1.15159E+00 3.78929E+00 1.72003E-02-6.00672E+01 1.89842E+02
 -1       158-1.52167E+00-1.46305E+00 5.09271E+00 1.36033E-01-9.92500E+00 2.26245E+02
 -1       159-8.26542E+01-9.86889E+01 3.18731E+02 8.58800E-01-2.67245E+01 3.85138E+00
 -1       160-1.92002E+00-2.34149E+00 8.19064E+00-3.28358E-02-2.36748E+01 7.38051E+01
 -1       161-9.29392E+01-1.12777E+02 3.66668E+02 6.58288E+00 9.48702E+00 1.57295E+01
 -1       162 1.51664E+02 1.35489E+02-5.11454E+02 1.03484E+00 7.89470E+00-8.95454E+00
 -1       163 1.64575E+02 1.62017E+02-5.81007E+02 2.10829E+00-4.90910E-01-1.07166E+01
 -1       164 6.45788E+01 6.42613E+01-2.32104E+02-1.75617E-01 6.92997E+00-2.18959E+01
 -1       165 8.23092E+01 9.28227E+01-3.12155E+02 2.25046E+00 1.12927E+00-2.61082E+01
 -1       166 7.86956E+01 9.50457E+01-3.07178E+02-9.10248E-01-2.70019E+01 4.34625E+00
 -1       167 1.60504E+02 1.46213E+02-5.47852E+02-3.04803E+00 2.69605E+00-8.49626E+00
 -1       168 8.84487E+01 1.08495E+02-3.52962E+02-6.65550E+00 9.70128E+00 1.64100E+01
 -1       169-3.71228E+01-3.30866E+01 1.25651E+02-2.54954E-01 6.56010E+01-7.44303E+01
 -1       170-4.01666E+01-3.96231E+01 1.42594E+02-4.89890E-01-3.59492E+00-8.88759E+01
 -1       171-1.57285E+01-1.56576E+01 5.67371E+01 4.58362E-02 5.75760E+01-1.81807E+02
 -1       172-1.99742E+01-2.26759E+01 7.62854E+01-5.33204E-01 9.50971E+00-2.16727E+02
 -1       173 6.00564E+01 7.27283E+01-2.34946E+02-7.12931E-01 3.28691E+01-5.19436E+00
 -1       174-3.92515E+01-3.57124E+01 1.34525E+02 7.86193E-01 2.25354E+01-7.05976E+01
 -1       175 6.76531E+01 8.29711E+01-2.70110E+02-5.07959E+00-1.19170E+01-1.99922E+01
 -1       176-1.39866E+02-1.24145E+02 4.71215E+02-9.92535E-01-2.65372E+01 2.99770E+01
 -1       177-1.51168E+02-1.48580E+02 5.34688E+02-2.01833E+00 1.27559E+00 3.57870E+01
 -1       178-5.90734E+01-5.87526E+01 2.13043E+02 1.69905E-01-2.33001E+01 7.35670E+01
 -1       179-7.50227E+01-8.50938E+01 2.86381E+02-2.15370E+00-3.88570E+00 8.76375E+01
 -1       180-9.29704E+01-1.12787E+02 3.64617E+02 1.12018E+00 1.75366E+01-2.83637E+00
 -1       181-1.47780E+02-1.33922E+02 5.04446E+02 2.92093E+00-9.29197E+00 2.84075E+01
 -1       182-1.04389E+02-1.28679E+02 4.18679E+02 8.06251E+00-6.47333E+00-1.08861E+01
 -1       183 8.37374E+01 7.53130E+01-2.75066E+02 6.18684E-01-6.28582E+01 7.29194E+01
 -1       184 9.21418E+01 8.94825E+01-3.14155E+02 1.42308E+00 2.71767E+00 8.68828E+01
 -1       185 3.64522E+01 3.59639E+01-1.28354E+02-2.76867E-02-5.52704E+01 1.75328E+02
 -1       186 4.72631E+01 5.14511E+01-1.72855E+02 1.57600E+00-9.31477E+00 2.08620E+02
 -1       187-3.01482E+01-3.74431E+01 1.21837E+02 4.56604E-01-3.96260E+01 6.65867E+00
 -1       188 8.90757E+01 8.12151E+01-2.95401E+02-1.30949E+00-2.25407E+01 6.95122E+01
 -1       189-3.33560E+01-4.28310E+01 1.38669E+02 3.20675E+00 1.38908E+01 2.41723E+01
 -1       190 1.43903E+02 1.36647E+02-4.85270E+02 5.85677E-01 2.75386E+01-3.33918E+01
 -1       191 1.63494E+02 1.61617E+02-5.63134E+02 2.27705E+00-2.95446E+00-4.08491E+01
 -1       192 6.65158E+01 6.67523E+01-2.27696E+02-5.85074E-02 2.41125E+01-7.62633E+01
 -1       193 8.87001E+01 9.34911E+01-3.10647E+02 1.89331E+00 3.22033E+00-9.22271E+01
 -1       194 1.18211E+02 1.41256E+02-4.54869E+02-1.31431E+00-1.50332E+01 1.11263E+00
 -1       195 1.54952E+02 1.47915E+02-5.25712E+02-9.55207E-01 8.56615E+00-3.30176E+01
 -1       196 1.36126E+02 1.61111E+02-5.26547E+02-8.20522E+00 3.60589E+00 5.51291E+00
 -1       197 5.61597E+00 1.32043E+01-4.01651E+00 1.45793E+00 2.42437E+01-3.41962E+01
 -1       198 1.29292E+01 1.43312E+00-7.93514E+00 6.89752E-01 1.99595E+00-3.90088E+01
 -1       199 1.46538E+01 4.99000E+00-3.08792E+00 1.41943E+00 2.01505E+01-7.21634E+01
 -1       200 1.96728E+01-2.10898E-01-5.03530E+00 4.92916E+00 5.50858E+00-8.64888E+01
 -1       201 6.37164E+01 7.14171E+01-2.11933E+02 7.78895E-01 2.11408E+01 1.74096E+00
 -1       202 9.68310E+00 9.63450E+00-6.65710E+00 3.04236E+00 1.12285E+01-2.86915E+01
 -1       203 7.54988E+01 7.56835E+01-2.48007E+02 5.78220E-01-8.90442E+00-7.75481E+00
 -1       204 6.58883E-04 6.31636E-04-4.34454E+02-1.81867E-05-9.66626E+01 3.03640E+02
 -1       205-1.13474E+02-1.19066E+02 4.19373E+02 1.02771E+01 2.15429E+01 1.68386E+01
 -1       206 1.01455E-04 1.11802E-04-7.37832E+01-2.46649E-05-5.99773E+01 2.81006E+02
 -1       207-1.96414E+01-1.94861E+01 7.12117E+01 8.50192E+00-5.59592E-01 2.30220E+02
 -1       208-2.99546E-04-4.70988E-05-4.07770E+02-8.74637E-05-7.60655E+01 3.03872E+02
 -1       209-1.60554E+01 1.04589E+01-4.52835E+01-1.86562E+01-1.01158E+01 9.63796E+01
 -1       210-1.07776E+02-1.11276E+02 3.94217E+02 5.34995E+00-5.63603E+00 4.66744E+00
 -1       211-3.50317E-04-2.19990E-04-2.30365E+02-1.37968E-04-7.80833E+01 2.94919E+02
 -1       212-7.21980E+01-6.83575E+01 2.31647E+02 9.49793E+00 7.76486E+00 1.23178E+02
 -1       213-3.25421E-05-6.37694E-05-3.27912E+01-7.17758E-05-5.86302E+01 2.83090E+02
 -1       214 2.69194E+00-3.21872E+00-8.93829E+00-1.84183E+01-1.70078E+01 2.10216E+02
 -1       215-9.60463E+00-1.11079E+01 3.33629E+01 3.75674E+00-1.86817E+01 2.03401E+02
 -1       216-4.29447E+01-3.79642E+01 1.36364E+02-2.08107E+00-3.32564E+00-8.10796E+01
 -1       217-5.87305E+00-8.26245E+00 2.33069E+01-5.49819E+00 1.30564E+01-3.23903E+02
 -1       218-7.53449E+01-1.12977E+02 3.76004E+02 1.28005E+01-4.95095E+00-1.89358E+01
 -1       219-4.42440E+01-3.26194E+01 1.28507E+02 1.58655E+00 2.03762E+01-6.39435E+01
 -1       220-1.66351E+01-2.11873E+01 6.62752E+01-2.88602E+00 8.84909E+00-2.04488E+02
 -1       221-1.98124E+01-1.28552E+01 6.44409E+01 1.11230E+01 2.52183E+00-4.71015E+01
 -1       222-2.49120E+00-2.70169E+00 9.32889E+00-7.53782E-01 3.31500E+01-2.84149E+02
 -1       223 1.68617E+02 1.64941E+02-5.88257E+02 2.66334E+00-7.84070E-01-1.24283E+01
 -1       224 2.67273E+01 3.01961E+01-1.00295E+02 6.51836E+00 1.99983E+00-4.33457E+01
 -1       225 6.77906E+01 8.45824E+01-2.77853E+02-5.63832E+00-1.21746E+01-1.74149E+01
 -1       226 1.64795E+02 1.48626E+02-5.54465E+02-3.11897E+00 2.91377E+00-9.82158E+00
 -1       227 8.34059E+01 9.43680E+01-3.16380E+02 3.00983E+00 1.24937E+00-2.85240E+01
 -1       228 1.44836E+01 1.13674E+01-4.66720E+01-5.04039E+00 5.06801E-01-1.66453E+02
 -1       229 1.26164E+01 1.27055E+01-4.55669E+01-5.37082E-01 4.64533E+00-3.80466E+01
 -1       230 2.19512E+00 2.45447E+00-8.78082E+00-7.70662E-02 3.74954E+00 9.29096E+01
 -1       231 4.15834E-01 3.39594E-01-1.47841E+00-2.35978E-01-1.50828E+01 3.52846E+02
 -1       232 9.29392E+01 1.12777E+02-3.66668E+02-6.58288E+00 9.48702E+00 1.57295E+01
 -1       233 1.92002E+00 2.34149E+00-8.19064E+00 3.28358E-02-2.36748E+01 7.38051E+01
 -1       234 1.52167E+00 1.46305E+00-5.09271E+00-1.36033E-01-9.92500E+00 2.26245E+02
 -1       235 1.91362E+01 1.60270E+01-6.18033E+01-4.42899E+00-7.46798E-01 1.37823E+02
 -1       236 2.23298E-01 2.11889E-01-7.34759E-01-8.87048E-02-3.68113E+01 3.09777E+02
 -1       237-1.64575E+02-1.62017E+02 5.81007E+02-2.10829E+00-4.90910E-01-1.07166E+01
 -1       238-2.62719E+01-2.94084E+01 9.91732E+01-5.33688E+00 1.73632E+00-4.07144E+01
 -1       239-8.84487E+01-1.08495E+02 3.52962E+02 6.65550E+00 9.70128E+00 1.64100E+01
 -1       240-1.60504E+02-1.46213E+02 5.47852E+02 3.04803E+00 2.69605E+00-8.49626E+00
 -1       241-8.23092E+01-9.28227E+01 3.12155E+02-2.25046E+00 1.12927E+00-2.61082E+01
 -1       242-1.84298E+01-1.52594E+01 5.95631E+01 4.69432E+00-8.42756E-01 1.39254E+02
 -1       243-1.24605E+01-1.25221E+01 4.50060E+01 9.05690E-01 4.24570E+00-3.57391E+01
 -1       244 4.01666E+01 3.96231E+01-1.42594E+02 4.89890E-01-3.59492E+00-8.88759E+01
 -1       245 6.41564E+00 7.19827E+00-2.43643E+01 1.31484E+00 1.44324E+01-3.38316E+02
 -1       246-6.76531E+01-8.29711E+01 2.70110E+02 5.07959E+00-1.19170E+01-1.99922E+01
 -1       247 3.92515E+01 3.57124E+01-1.34525E+02-7.86193E-01 2.25354E+01-7.05976E+01
 -1       248 1.99742E+01 2.26759E+01-7.62854E+01 5.33204E-01 9.50971E+00-2.16727E+02
 -1       249-1.41023E+01-1.16452E+01 4.55571E+01 3.67672E+00 1.00721E+00-1.69512E+02
 -1       250 3.03607E+00 3.04982E+00-1.10016E+01-2.36386E-01 3.52532E+01-2.96930E+02
 -1       251 1.51168E+02 1.48580E+02-5.34688E+02 2.01833E+00 1.27559E+00 3.57870E+01
 -1       252 2.40722E+01 2.71206E+01-9.13706E+01 5.11868E+00-5.81267E+00 1.36857E+02
 -1       253 1.04389E+02 1.28679E+02-4.18679E+02-8.06251E+00-6.47333E+00-1.08861E+01
 -1       254 1.47780E+02 1.33922E+02-5.04446E+02-2.92093E+00-9.29197E+00 2.84075E+01
 -1       255 7.50227E+01 8.50938E+01-2.86381E+02 2.15370E+00-3.88570E+00 8.76375E+01
 -1       256 2.18700E+01 1.80274E+01-7.07008E+01-5.77695E+00 5.49985E-01-9.04395E+01
 -1       257 1.13924E+01 1.14546E+01-4.13100E+01-8.76228E-01-1.42650E+01 1.20163E+02
 -1       258-9.21418E+01-8.94825E+01 3.14155E+02-1.42308E+00 2.71767E+00 8.68828E+01
 -1       259-1.46035E+01-1.62370E+01 5.33365E+01-3.19066E+00-1.41394E+01 3.24171E+02
 -1       260 3.33560E+01 4.28310E+01-1.38669E+02-3.20675E+00 1.38908E+01 2.41723E+01
 -1       261-8.90757E+01-8.12151E+01 2.95401E+02 1.30949E+00-2.25407E+01 6.95122E+01
 -1       262-4.72631E+01-5.14511E+01 1.72855E+02-1.57600E+00-9.31477E+00 2.08620E+02
 -1       263 7.26038E+00 5.84587E+00-2.36248E+01-2.35479E+00-1.29114E+00 2.04358E+02
 -1       264-6.97355E+00-7.06824E+00 2.48884E+01 1.42785E-01-3.39969E+01 2.85039E+02
 -1       265-1.63494E+02-1.61617E+02 5.63134E+02-2.27705E+00-2.95446E+00-4.08491E+01
 -1       266-2.64964E+01-2.79035E+01 9.40959E+01-3.02044E+00 6.47482E+00-1.42021E+02
 -1       267-1.36126E+02-1.61111E+02 5.26547E+02 8.20522E+00 3.60589E+00 5.51291E+00
 -1       268-1.54952E+02-1.47915E+02 5.25712E+02 9.55207E-01 8.56615E+00-3.30176E+01
 -1       269-8.87001E+01-9.34911E+01 3.10647E+02-1.89331E+00 3.22033E+00-9.22271E+01
 -1       270-2.73902E+01-2.29217E+01 8.82012E+01 6.77812E+00-2.15743E-01 7.75287E+01
 -1       271-1.29436E+01-1.28977E+01 4.41513E+01 3.01733E-01 1.47878E+01-1.24352E+02
 -1       272-1.29292E+01-1.43312E+00 7.93514E+00-6.89752E-01 1.99595E+00-3.90088E+01
 -1       273-2.56037E+00-1.08896E+00 7.78819E-01-7.51879E+00 6.63080E+00-1.25029E+02
 -1       274-7.54988E+01-7.56835E+01 2.48007E+02-5.78220E-01-8.90442E+00-7.75481E+00
 -1       275-9.68310E+00-9.63450E+00 6.65710E+00-3.04236E+00 1.12285E+01-2.86915E+01
 -1       276-1.96728E+01 2.10898E-01 5.03530E+00-4.92916E+00 5.50858E+00-8.64888E+01
 -1       277-1.38481E+01-1.23549E+01 4.10948E+01-4.01690E+00-3.37579E-01-1.09027E+02
 -1       278-9.67582E-01-2.84144E+00 5.98761E-01-7.32025E+00 1.39928E+01-1.03920E+02
 -1       279-4.55842E-04-4.15486E-04 2.93333E+02-1.22792E-05-1.81391E+01 2.88414E+02
 -1       280 7.43614E+01 8.26441E+01-2.83151E+02 6.93884E+00-3.00115E+01 2.68352E+01
 -1       281 3.58710E-04 1.16474E-04 8.40496E+01-1.13503E-04-3.82639E+01 2.87311E+02
 -1       282 3.29995E+01 3.02691E+01-9.08936E+01 8.08424E+00-1.02524E+01 1.30532E+02
 -1       283 2.34305E-04-9.03847E-05 3.46804E+02-3.87024E-05-3.68314E+01 2.96151E+02
 -1       284 2.15244E+01-1.77458E+01 3.05743E+01-1.25962E+01-2.79308E+01 9.98340E+01
 -1       285 8.86523E+01 9.08778E+01-3.31675E+02 1.94069E+00-4.35595E+01 8.16106E+00
 -1       286 3.10022E+01 2.36256E+01-9.20695E+01-1.40509E+00 3.62573E+01-8.87549E+01
 -1       287 4.79056E+00 5.01429E+00-1.96707E+01-3.75083E+00 1.62261E+01-2.12255E+02
 -1       288 3.57071E+01 9.14431E+01-2.53869E+02 8.64258E+00 1.29681E+01-2.24104E+01
 -1       289 3.91634E+01 2.84648E+01-1.11841E+02 2.87346E+00 6.04323E+01-6.53739E+01
 -1       290-1.15327E+02-1.09883E+02 3.97177E+02 1.79822E+00 5.85342E+00-1.37153E+01
 -1       291-3.00325E+01-3.53359E+01 1.17674E+02 4.50182E+00 2.61071E+00-2.95786E+01
 -1       292-3.90041E+01-6.38745E+01 1.87599E+02-3.80686E+00 2.01434E+01-2.36815E+01
 -1       293-1.39645E+02-1.26630E+02 4.70299E+02-4.57551E+00 8.35259E+00-1.00855E+01
 -1       294-1.37759E+00-1.76170E+00 5.92860E+00-5.20332E-02-4.14813E+01 1.01680E+02
 -1       295-6.97037E-01-8.03676E-01 2.19013E+00-1.59894E-01-1.90400E+01 2.34383E+02
 -1       296-5.47564E+01-8.41384E+01 2.47566E+02-4.44460E+00-1.65666E+01 2.07814E+01
 -1       297-1.48050E+00-1.91127E+00 6.77846E+00 9.02172E-02-6.56432E+01 7.55725E+01
 -1       298 1.12148E+02 1.08359E+02-3.92282E+02-1.42346E+00 4.84761E+00-1.17517E+01
 -1       299 2.98225E+01 3.53987E+01-1.15783E+02-3.65454E+00 2.20615E+00-2.70618E+01
 -1       300 5.16405E+01 8.13314E+01-2.38311E+02 4.49364E+00-1.70718E+01 2.16014E+01
 -1       301 1.35642E+02 1.24470E+02-4.64873E+02 4.19304E+00 7.61385E+00-8.70508E+00
 -1       302-2.73386E+01-2.65335E+01 9.62759E+01 3.30762E-01 3.96892E+01-9.72689E+01
 -1       303-7.14428E+00-8.63094E+00 2.80379E+01 8.91671E-01 1.81952E+01-2.24580E+02
 -1       304 3.95053E+01 6.21926E+01-1.82372E+02 3.42962E+00 2.09042E+01-2.63564E+01
 -1       305-3.31810E+01-3.04540E+01 1.14296E+02-1.06248E+00 6.30360E+01-7.22818E+01
 -1       306-1.03108E+02-9.92743E+01 3.61009E+02 1.36273E+00-1.57960E+01 3.90972E+01
 -1       307-2.69194E+01-3.21934E+01 1.05486E+02 3.49900E+00-7.25775E+00 9.07408E+01
 -1       308-6.06930E+01-9.66692E+01 2.82682E+02-5.44362E+00 1.13658E+01-1.43452E+01
 -1       309-1.25037E+02-1.14155E+02 4.28462E+02-4.01702E+00-2.52964E+01 2.90613E+01
 -1       310 6.32835E+01 5.93449E+01-2.12110E+02-9.60827E-01-3.79403E+01 9.47665E+01
 -1       311 1.82297E+01 1.95774E+01-6.73265E+01-2.22682E+00-1.79680E+01 2.15837E+02
 -1       312-1.87032E+01-3.27365E+01 9.36262E+01-2.16512E+00-2.47166E+01 3.16584E+01
 -1       313 7.53030E+01 6.85158E+01-2.48829E+02 2.04688E+00-5.97633E+01 7.11901E+01
 -1       314 1.11143E+02 1.08363E+02-3.80215E+02-1.53741E+00 1.96459E+01-4.52314E+01
 -1       315 3.60270E+01 3.83569E+01-1.23079E+02-2.42616E+00 9.83280E+00-9.59815E+01
 -1       316 8.18410E+01 1.18846E+02-3.55512E+02 5.53997E+00-6.10912E+00 7.39670E+00
 -1       317 1.29386E+02 1.23730E+02-4.41611E+02 1.79277E+00 2.79283E+01-3.42998E+01
 -1       318 1.33620E+01-3.66486E+00-5.35762E+00-4.65704E-01 1.35671E+01-4.12525E+01
 -1       319 1.73277E+01-4.12928E+00-2.74619E+00-4.08835E+00 5.62253E+00-8.87220E+01
 -1       320 5.09005E+01 5.11741E+01-1.67449E+02-3.90400E-01 1.27250E+01-1.19489E+01
 -1       321 1.05247E+01 2.45994E+00-5.14824E+00-1.29383E+00 2.27457E+01-2.87136E+01
 -3
    1PSTEP                        64           1           1          
    1PGM                1.000000E+00                                  
    1PGK                1.040845E+11                                  
    1PHID                         -1                                  
    1PSUBC                         0                                  
    1PMODE                        16                                  
  100CL  116 51346.77972         321                     2   16MODAL      1
 -4  ERROR       1    1
 -5  STR(%)      1    1    0    0
 -1         1 2.04915E+01
 -1         2 2.10366E+01
 -1         3 2.10366E+01
 -1         4 2.04915E+01
 -1         5 2.10366E+01
 -1         6 2.10366E+01
 -1         7 2.10366E+01
 -1         8 2.10366E+01
 -1         9 2.07641E+01
 -1        10 2.10366E+01
 -1        11 2.07641E+01
 -1        12 2.04915E+01
 -1        13 2.07641E+01
 -1        14 2.10366E+01
 -1        15 2.10366E+01
 -1        16 2.07641E+01
 -1        17 2.10366E+01
 -1        18 2.10366E+01
 -1        19 2.10366E+01
 -1        20 2.10366E+01
 -1        21 2.01053E+01
 -1        22 2.01053E+01
 -1        23 2.01053E+01
 -1        24 2.01053E+01
 -1        25 2.05710E+01
 -1        26 2.01053E+01
 -1        27 2.02984E+01
 -1        28 2.01053E+01
 -1        29 2.01053E+01
 -1        30 2.05710E+01
 -1        31 2.01053E+01
 -1        32 2.05710E+01
 -1        33 1.96935E+01
 -1        34 1.96935E+01
 -1        35 1.96935E+01
 -1        36 1.96935E+01
 -1        37 1.98994E+01
 -1        38 1.96935E+01
 -1        39 1.98994E+01
 -1        40 1.96935E+01
 -1        41 1.96935E+01
 -1        42 1.98994E+01
 -1        43 1.96935E+01
 -1        44 1.98994E+01
 -1        45 1.96935E+01
 -1        46 1.96935E+01
 -1        47 1.96935E+01
 -1        48 1.96935E+01
 -1        49 1.96935E+01
 -1        50 1.96935E+01
 -1        51 1.96935E+01
 -1        52 1.96935E+01
 -1        53 1.96935E+01
 -1        54 1.96935E+01
 -1        55 1.96935E+01
 -1        56 1.96935E+01
 -1        57 1.96831E+01
 -1        58 1.96831E+01
 -1        59 1.96831E+01
 -1        60 1.96831E+01
 -1        61 1.96883E+01
 -1        62 1.96831E+01
 -1        63 1.96883E+01
 -1        64 1.96831E+01
 -1        65 1.96831E+01
 -1        66 1.96883E+01
 -1        67 1.96831E+01
 -1        68 1.96883E+01
 -1        69 2.00527E+01
 -1        70 2.00527E+01
 -1        71 2.00527E+01
 -1        72 2.00527E+01
 -1        73 1.98679E+01
 -1        74 2.00527E+01
 -1        75 1.98679E+01
 -1        76 2.00527E+01
 -1        77 2.00527E+01
 -1        78 1.98679E+01
 -1        79 2.00527E+01
 -1        80 1.98679E+01
 -1        81 2.00527E+01
 -1        82 2.00527E+01
 -1        83 2.00527E+01
 -1        84 2.00527E+01
 -1        85 2.00527E+01
 -1        86 2.00527E+01
 -1        87 2.00527E+01
 -1        88 2.00527E+01
 -1        89 2.00527E+01
 -1        90 2.00527E+01
 -1        91 2.00527E+01
 -1        92 2.00527E+01
 -1        93 2.03747E+01
 -1        94 2.03747E+01
 -1        95 2.03747E+01
 -1        96 2.03747E+01
 -1        97 2.02137E+01
 -1        98 2.03747E+01
 -1        99 2.02137E+01
 -1       100 2.03747E+01
 -1       101 2.03747E+01
 -1       102 2.02137E+01
 -1       103 2.03747E+01
 -1       104 2.02137E+01
 -1       105 2.03747E+01
 -1       106 2.03747E+01
 -1       107 2.03747E+01
 -1       108 2.03747E+01
 -1       109 2.03747E+01
 -1       110 2.03747E+01
 -1       111 2.03747E+01
 -1       112 2.03747E+01
 -1       113 2.03747E+01
 -1       114 2.03747E+01
 -1       115 2.03747E+01
 -1       116 2.03747E+01
 -1       117 1.84074E+01
 -1       118 1.78389E+01
 -1       119 1.84074E+01
 -1       120 1.84074E+01
 -1       121 1.93911E+01
 -1       122 1.81232E+01
 -1       123 1.91068E+01
 -1       124 1.84074E+01
 -1       125 1.81232E+01
 -1       126 1.93911E+01
 -1       127 1.84074E+01
 -1       128 1.93911E+01
 -1       129 2.10366E+01
 -1       130 2.10366E+01
 -1       131 2.10366E+01
 -1       132 2.10366E+01
 -1       133 2.10366E+01
 -1       134 2.10366E+01
 -1       135 2.10366E+01
 -1       136 2.10366E+01
 -1       137 2.10366E+01
 -1       138 2.10366E+01
 -1       139 2.10366E+01
 -1       140 2.10366E+01
 -1       141 2.01053E+01
 -1       142 1.93234E+01
 -1       143 2.01053E+01
 -1       144 1.97143E+01
 -1       145 2.05710E+01
 -1       146 1.97143E+01
 -1       147 2.01800E+01
 -1       148 1.96935E+01
 -1       149 1.76583E+01
 -1       150 1.96935E+01
 -1       151 1.86759E+01
 -1       152 1.98994E+01
 -1       153 1.86759E+01
 -1       154 1.84908E+01
 -1       155 1.96935E+01
 -1       156 1.76583E+01
 -1       157 1.96935E+01
 -1       158 1.86759E+01
 -1       159 1.96935E+01
 -1       160 1.86759E+01
 -1       161 1.76583E+01
 -1       162 1.96831E+01
 -1       163 1.76260E+01
 -1       164 1.96831E+01
 -1       165 1.86546E+01
 -1       166 1.96883E+01
 -1       167 1.86546E+01
 -1       168 1.76421E+01
 -1       169 2.00527E+01
 -1       170 1.80680E+01
 -1       171 2.00527E+01
 -1       172 1.90604E+01
 -1       173 1.98679E+01
 -1       174 1.90604E+01
 -1       175 1.78470E+01
 -1       176 2.00527E+01
 -1       177 1.80680E+01
 -1       178 2.00527E+01
 -1       179 1.90604E+01
 -1       180 2.00527E+01
 -1       181 1.90604E+01
 -1       182 1.80680E+01
 -1       183 2.03747E+01
 -1       184 1.81854E+01
 -1       185 2.03747E+01
 -1       186 1.92800E+01
 -1       187 2.02137E+01
 -1       188 1.92800E+01
 -1       189 1.81267E+01
 -1       190 2.03747E+01
 -1       191 1.84074E+01
 -1       192 2.03747E+01
 -1       193 1.93911E+01
 -1       194 2.03747E+01
 -1       195 1.93911E+01
 -1       196 1.82964E+01
 -1       197 1.84074E+01
 -1       198 1.84074E+01
 -1       199 1.84074E+01
 -1       200 1.84074E+01
 -1       201 1.93911E+01
 -1       202 1.84074E+01
 -1       203 1.84074E+01
 -1       204 2.10366E+01
 -1       205 2.10366E+01
 -1       206 2.10366E+01
 -1       207 2.10366E+01
 -1       208 2.10366E+01
 -1       209 2.10366E+01
 -1       210 2.10366E+01
 -1       211 2.10366E+01
 -1       212 2.10366E+01
 -1       213 2.10366E+01
 -1       214 2.10366E+01
 -1       215 2.10366E+01
 -1       216 1.93234E+01
 -1       217 2.01053E+01
 -1       218 2.01800E+01
 -1       219 1.97143E+01
 -1       220 1.97143E+01
 -1       221 2.05710E+01
 -1       222 2.01053E+01
 -1       223 1.76583E+01
 -1       224 1.96935E+01
 -1       225 1.84908E+01
 -1       226 1.86759E+01
 -1       227 1.86759E+01
 -1       228 1.98994E+01
 -1       229 1.96935E+01
 -1       230 1.76583E+01
 -1       231 1.96935E+01
 -1       232 1.76583E+01
 -1       233 1.86759E+01
 -1       234 1.86759E+01
 -1       235 1.96935E+01
 -1       236 1.96935E+01
 -1       237 1.76260E+01
 -1       238 1.96831E+01
 -1       239 1.76421E+01
 -1       240 1.86546E+01
 -1       241 1.86546E+01
 -1       242 1.96883E+01
 -1       243 1.96831E+01
 -1       244 1.80680E+01
 -1       245 2.00527E+01
 -1       246 1.78470E+01
 -1       247 1.90604E+01
 -1       248 1.90604E+01
 -1       249 1.98679E+01
 -1       250 2.00527E+01
 -1       251 1.80680E+01
 -1       252 2.00527E+01
 -1       253 1.80680E+01
 -1       254 1.90604E+01
 -1       255 1.90604E+01
 -1       256 2.00527E+01
 -1       257 2.00527E+01
 -1       258 1.81854E+01
 -1       259 2.03747E+01
 -1       260 1.81267E+01
 -1       261 1.92800E+01
 -1       262 1.92800E+01
 -1       263 2.02137E+01
 -1       264 2.03747E+01
 -1       265 1.84074E+01
 -1       266 2.03747E+01
 -1       267 1.82964E+01
 -1       268 1.93911E+01
 -1       269 1.93911E+01
 -1       270 2.03747E+01
 -1       271 2.03747E+01
 -1       272 1.84074E+01
 -1       273 1.84074E+01
 -1       274 1.84074E+01
 -1       275 1.84074E+01
 -1       276 1.84074E+01
 -1       277 1.93911E+01
 -1       278 1.84074E+01
 -1       279 2.04915E+01
 -1       280 2.04915E+01
 -1       281 2.07641E+01
 -1       282 2.07641E+01
 -1       283 2.07641E+01
 -1       284 2.04915E+01
 -1       285 2.07641E+01
 -1       286 2.01053E+01
 -1       287 2.01053E+01
 -1       288 2.02984E+01
 -1       289 2.01053E+01
 -1       290 1.96935E+01
 -1       291 1.96935E+01
 -1       292 1.98994E+01
 -1       293 1.96935E+01
 -1       294 1.96935E+01
 -1       295 1.96935E+01
 -1       296 1.96935E+01
 -1       297 1.96935E+01
 -1       298 1.96831E+01
 -1       299 1.96831E+01
 -1       300 1.96883E+01
 -1       301 1.96831E+01
 -1       302 2.00527E+01
 -1       303 2.00527E+01
 -1       304 1.98679E+01
 -1       305 2.00527E+01
 -1       306 2.00527E+01
 -1       307 2.00527E+01
 -1       308 2.00527E+01
 -1       309 2.00527E+01
 -1       310 2.03747E+01
 -1       311 2.03747E+01
 -1       312 2.02137E+01
 -1       313 2.03747E+01
 -1       314 2.03747E+01
 -1       315 2.03747E+01
 -1       316 2.03747E+01
 -1       317 2.03747E+01
 -1       318 1.78389E+01
 -1       319 1.81232E+01
 -1       320 1.91068E+01
 -1       321 1.81232E+01
 -3
 9999
