    1C
    1UUSER                                                              
    1UDATE              25.january.2020                                 
    1UTIME              17:53:37                                        
    1UHOST                                                              
    1UPGM               CalculiX                                        
    1UVERSION           Version 2.16                             
    1UCOMPILETIME       Tue  7 Jan 19:57:43 CET 2020                    
    1UDIR                                                               
    1UDBN                                                               
    1UMAT    1STEEL                                                     
    2C                           321                                     1
 -1         1 1.00000E-02 1.00000E-02 0.00000E+00
 -1         2 1.00000E-02 5.00000E-03 0.00000E+00
 -1         3 1.00000E-02 5.00000E-03 1.00000E-02
 -1         4 1.00000E-02 1.00000E-02 1.00000E-02
 -1         5 5.00000E-03 1.00000E-02 0.00000E+00
 -1         6 5.00000E-03 5.00000E-03 0.00000E+00
 -1         7 5.00000E-03 5.00000E-03 1.00000E-02
 -1         8 5.00000E-03 1.00000E-02 1.00000E-02
 -1         9 1.00000E-02 7.50000E-03 0.00000E+00
 -1        10 1.00000E-02 5.00000E-03 5.00000E-03
 -1        11 1.00000E-02 7.50000E-03 1.00000E-02
 -1        12 1.00000E-02 1.00000E-02 5.00000E-03
 -1        13 7.50000E-03 1.00000E-02 0.00000E+00
 -1        14 7.50000E-03 5.00000E-03 0.00000E+00
 -1        15 7.50000E-03 5.00000E-03 1.00000E-02
 -1        16 7.50000E-03 1.00000E-02 1.00000E-02
 -1        17 5.00000E-03 7.50000E-03 0.00000E+00
 -1        18 5.00000E-03 5.00000E-03 5.00000E-03
 -1        19 5.00000E-03 7.50000E-03 1.00000E-02
 -1        20 5.00000E-03 1.00000E-02 5.00000E-03
 -1        21 1.00000E-02 5.00000E-03 2.00000E-02
 -1        22 1.00000E-02 1.00000E-02 2.00000E-02
 -1        23 5.00000E-03 5.00000E-03 2.00000E-02
 -1        24 5.00000E-03 1.00000E-02 2.00000E-02
 -1        25 1.00000E-02 5.00000E-03 1.50000E-02
 -1        26 1.00000E-02 7.50000E-03 2.00000E-02
 -1        27 1.00000E-02 1.00000E-02 1.50000E-02
 -1        28 7.50000E-03 5.00000E-03 2.00000E-02
 -1        29 7.50000E-03 1.00000E-02 2.00000E-02
 -1        30 5.00000E-03 5.00000E-03 1.50000E-02
 -1        31 5.00000E-03 7.50000E-03 2.00000E-02
 -1        32 5.00000E-03 1.00000E-02 1.50000E-02
 -1        33 1.00000E-02 5.00000E-03 3.00000E-02
 -1        34 1.00000E-02 1.00000E-02 3.00000E-02
 -1        35 5.00000E-03 5.00000E-03 3.00000E-02
 -1        36 5.00000E-03 1.00000E-02 3.00000E-02
 -1        37 1.00000E-02 5.00000E-03 2.50000E-02
 -1        38 1.00000E-02 7.50000E-03 3.00000E-02
 -1        39 1.00000E-02 1.00000E-02 2.50000E-02
 -1        40 7.50000E-03 5.00000E-03 3.00000E-02
 -1        41 7.50000E-03 1.00000E-02 3.00000E-02
 -1        42 5.00000E-03 5.00000E-03 2.50000E-02
 -1        43 5.00000E-03 7.50000E-03 3.00000E-02
 -1        44 5.00000E-03 1.00000E-02 2.50000E-02
 -1        45 1.00000E-02 5.00000E-03 4.00000E-02
 -1        46 1.00000E-02 1.00000E-02 4.00000E-02
 -1        47 5.00000E-03 5.00000E-03 4.00000E-02
 -1        48 5.00000E-03 1.00000E-02 4.00000E-02
 -1        49 1.00000E-02 5.00000E-03 3.50000E-02
 -1        50 1.00000E-02 7.50000E-03 4.00000E-02
 -1        51 1.00000E-02 1.00000E-02 3.50000E-02
 -1        52 7.50000E-03 5.00000E-03 4.00000E-02
 -1        53 7.50000E-03 1.00000E-02 4.00000E-02
 -1        54 5.00000E-03 5.00000E-03 3.50000E-02
 -1        55 5.00000E-03 7.50000E-03 4.00000E-02
 -1        56 5.00000E-03 1.00000E-02 3.50000E-02
 -1        57 1.00000E-02 5.00000E-03 5.00000E-02
 -1        58 1.00000E-02 1.00000E-02 5.00000E-02
 -1        59 5.00000E-03 5.00000E-03 5.00000E-02
 -1        60 5.00000E-03 1.00000E-02 5.00000E-02
 -1        61 1.00000E-02 5.00000E-03 4.50000E-02
 -1        62 1.00000E-02 7.50000E-03 5.00000E-02
 -1        63 1.00000E-02 1.00000E-02 4.50000E-02
 -1        64 7.50000E-03 5.00000E-03 5.00000E-02
 -1        65 7.50000E-03 1.00000E-02 5.00000E-02
 -1        66 5.00000E-03 5.00000E-03 4.50000E-02
 -1        67 5.00000E-03 7.50000E-03 5.00000E-02
 -1        68 5.00000E-03 1.00000E-02 4.50000E-02
 -1        69 1.00000E-02 5.00000E-03 6.00000E-02
 -1        70 1.00000E-02 1.00000E-02 6.00000E-02
 -1        71 5.00000E-03 5.00000E-03 6.00000E-02
 -1        72 5.00000E-03 1.00000E-02 6.00000E-02
 -1        73 1.00000E-02 5.00000E-03 5.50000E-02
 -1        74 1.00000E-02 7.50000E-03 6.00000E-02
 -1        75 1.00000E-02 1.00000E-02 5.50000E-02
 -1        76 7.50000E-03 5.00000E-03 6.00000E-02
 -1        77 7.50000E-03 1.00000E-02 6.00000E-02
 -1        78 5.00000E-03 5.00000E-03 5.50000E-02
 -1        79 5.00000E-03 7.50000E-03 6.00000E-02
 -1        80 5.00000E-03 1.00000E-02 5.50000E-02
 -1        81 1.00000E-02 5.00000E-03 7.00000E-02
 -1        82 1.00000E-02 1.00000E-02 7.00000E-02
 -1        83 5.00000E-03 5.00000E-03 7.00000E-02
 -1        84 5.00000E-03 1.00000E-02 7.00000E-02
 -1        85 1.00000E-02 5.00000E-03 6.50000E-02
 -1        86 1.00000E-02 7.50000E-03 7.00000E-02
 -1        87 1.00000E-02 1.00000E-02 6.50000E-02
 -1        88 7.50000E-03 5.00000E-03 7.00000E-02
 -1        89 7.50000E-03 1.00000E-02 7.00000E-02
 -1        90 5.00000E-03 5.00000E-03 6.50000E-02
 -1        91 5.00000E-03 7.50000E-03 7.00000E-02
 -1        92 5.00000E-03 1.00000E-02 6.50000E-02
 -1        93 1.00000E-02 5.00000E-03 8.00000E-02
 -1        94 1.00000E-02 1.00000E-02 8.00000E-02
 -1        95 5.00000E-03 5.00000E-03 8.00000E-02
 -1        96 5.00000E-03 1.00000E-02 8.00000E-02
 -1        97 1.00000E-02 5.00000E-03 7.50000E-02
 -1        98 1.00000E-02 7.50000E-03 8.00000E-02
 -1        99 1.00000E-02 1.00000E-02 7.50000E-02
 -1       100 7.50000E-03 5.00000E-03 8.00000E-02
 -1       101 7.50000E-03 1.00000E-02 8.00000E-02
 -1       102 5.00000E-03 5.00000E-03 7.50000E-02
 -1       103 5.00000E-03 7.50000E-03 8.00000E-02
 -1       104 5.00000E-03 1.00000E-02 7.50000E-02
 -1       105 1.00000E-02 5.00000E-03 9.00000E-02
 -1       106 1.00000E-02 1.00000E-02 9.00000E-02
 -1       107 5.00000E-03 5.00000E-03 9.00000E-02
 -1       108 5.00000E-03 1.00000E-02 9.00000E-02
 -1       109 1.00000E-02 5.00000E-03 8.50000E-02
 -1       110 1.00000E-02 7.50000E-03 9.00000E-02
 -1       111 1.00000E-02 1.00000E-02 8.50000E-02
 -1       112 7.50000E-03 5.00000E-03 9.00000E-02
 -1       113 7.50000E-03 1.00000E-02 9.00000E-02
 -1       114 5.00000E-03 5.00000E-03 8.50000E-02
 -1       115 5.00000E-03 7.50000E-03 9.00000E-02
 -1       116 5.00000E-03 1.00000E-02 8.50000E-02
 -1       117 1.00000E-02 5.00000E-03 1.00000E-01
 -1       118 1.00000E-02 1.00000E-02 1.00000E-01
 -1       119 5.00000E-03 5.00000E-03 1.00000E-01
 -1       120 5.00000E-03 1.00000E-02 1.00000E-01
 -1       121 1.00000E-02 5.00000E-03 9.50000E-02
 -1       122 1.00000E-02 7.50000E-03 1.00000E-01
 -1       123 1.00000E-02 1.00000E-02 9.50000E-02
 -1       124 7.50000E-03 5.00000E-03 1.00000E-01
 -1       125 7.50000E-03 1.00000E-02 1.00000E-01
 -1       126 5.00000E-03 5.00000E-03 9.50000E-02
 -1       127 5.00000E-03 7.50000E-03 1.00000E-01
 -1       128 5.00000E-03 1.00000E-02 9.50000E-02
 -1       129 0.00000E+00 1.00000E-02 0.00000E+00
 -1       130 0.00000E+00 5.00000E-03 0.00000E+00
 -1       131 0.00000E+00 5.00000E-03 1.00000E-02
 -1       132 0.00000E+00 1.00000E-02 1.00000E-02
 -1       133 2.50000E-03 1.00000E-02 0.00000E+00
 -1       134 2.50000E-03 5.00000E-03 0.00000E+00
 -1       135 2.50000E-03 5.00000E-03 1.00000E-02
 -1       136 2.50000E-03 1.00000E-02 1.00000E-02
 -1       137 0.00000E+00 7.50000E-03 0.00000E+00
 -1       138 0.00000E+00 5.00000E-03 5.00000E-03
 -1       139 0.00000E+00 7.50000E-03 1.00000E-02
 -1       140 0.00000E+00 1.00000E-02 5.00000E-03
 -1       141 0.00000E+00 5.00000E-03 2.00000E-02
 -1       142 0.00000E+00 1.00000E-02 2.00000E-02
 -1       143 2.50000E-03 5.00000E-03 2.00000E-02
 -1       144 2.50000E-03 1.00000E-02 2.00000E-02
 -1       145 0.00000E+00 5.00000E-03 1.50000E-02
 -1       146 0.00000E+00 7.50000E-03 2.00000E-02
 -1       147 0.00000E+00 1.00000E-02 1.50000E-02
 -1       148 0.00000E+00 5.00000E-03 3.00000E-02
 -1       149 0.00000E+00 1.00000E-02 3.00000E-02
 -1       150 2.50000E-03 5.00000E-03 3.00000E-02
 -1       151 2.50000E-03 1.00000E-02 3.00000E-02
 -1       152 0.00000E+00 5.00000E-03 2.50000E-02
 -1       153 0.00000E+00 7.50000E-03 3.00000E-02
 -1       154 0.00000E+00 1.00000E-02 2.50000E-02
 -1       155 0.00000E+00 5.00000E-03 4.00000E-02
 -1       156 0.00000E+00 1.00000E-02 4.00000E-02
 -1       157 2.50000E-03 5.00000E-03 4.00000E-02
 -1       158 2.50000E-03 1.00000E-02 4.00000E-02
 -1       159 0.00000E+00 5.00000E-03 3.50000E-02
 -1       160 0.00000E+00 7.50000E-03 4.00000E-02
 -1       161 0.00000E+00 1.00000E-02 3.50000E-02
 -1       162 0.00000E+00 5.00000E-03 5.00000E-02
 -1       163 0.00000E+00 1.00000E-02 5.00000E-02
 -1       164 2.50000E-03 5.00000E-03 5.00000E-02
 -1       165 2.50000E-03 1.00000E-02 5.00000E-02
 -1       166 0.00000E+00 5.00000E-03 4.50000E-02
 -1       167 0.00000E+00 7.50000E-03 5.00000E-02
 -1       168 0.00000E+00 1.00000E-02 4.50000E-02
 -1       169 0.00000E+00 5.00000E-03 6.00000E-02
 -1       170 0.00000E+00 1.00000E-02 6.00000E-02
 -1       171 2.50000E-03 5.00000E-03 6.00000E-02
 -1       172 2.50000E-03 1.00000E-02 6.00000E-02
 -1       173 0.00000E+00 5.00000E-03 5.50000E-02
 -1       174 0.00000E+00 7.50000E-03 6.00000E-02
 -1       175 0.00000E+00 1.00000E-02 5.50000E-02
 -1       176 0.00000E+00 5.00000E-03 7.00000E-02
 -1       177 0.00000E+00 1.00000E-02 7.00000E-02
 -1       178 2.50000E-03 5.00000E-03 7.00000E-02
 -1       179 2.50000E-03 1.00000E-02 7.00000E-02
 -1       180 0.00000E+00 5.00000E-03 6.50000E-02
 -1       181 0.00000E+00 7.50000E-03 7.00000E-02
 -1       182 0.00000E+00 1.00000E-02 6.50000E-02
 -1       183 0.00000E+00 5.00000E-03 8.00000E-02
 -1       184 0.00000E+00 1.00000E-02 8.00000E-02
 -1       185 2.50000E-03 5.00000E-03 8.00000E-02
 -1       186 2.50000E-03 1.00000E-02 8.00000E-02
 -1       187 0.00000E+00 5.00000E-03 7.50000E-02
 -1       188 0.00000E+00 7.50000E-03 8.00000E-02
 -1       189 0.00000E+00 1.00000E-02 7.50000E-02
 -1       190 0.00000E+00 5.00000E-03 9.00000E-02
 -1       191 0.00000E+00 1.00000E-02 9.00000E-02
 -1       192 2.50000E-03 5.00000E-03 9.00000E-02
 -1       193 2.50000E-03 1.00000E-02 9.00000E-02
 -1       194 0.00000E+00 5.00000E-03 8.50000E-02
 -1       195 0.00000E+00 7.50000E-03 9.00000E-02
 -1       196 0.00000E+00 1.00000E-02 8.50000E-02
 -1       197 0.00000E+00 5.00000E-03 1.00000E-01
 -1       198 0.00000E+00 1.00000E-02 1.00000E-01
 -1       199 2.50000E-03 5.00000E-03 1.00000E-01
 -1       200 2.50000E-03 1.00000E-02 1.00000E-01
 -1       201 0.00000E+00 5.00000E-03 9.50000E-02
 -1       202 0.00000E+00 7.50000E-03 1.00000E-01
 -1       203 0.00000E+00 1.00000E-02 9.50000E-02
 -1       204 1.00000E-02 0.00000E+00 0.00000E+00
 -1       205 1.00000E-02 0.00000E+00 1.00000E-02
 -1       206 5.00000E-03 0.00000E+00 0.00000E+00
 -1       207 5.00000E-03 0.00000E+00 1.00000E-02
 -1       208 1.00000E-02 2.50000E-03 0.00000E+00
 -1       209 1.00000E-02 0.00000E+00 5.00000E-03
 -1       210 1.00000E-02 2.50000E-03 1.00000E-02
 -1       211 7.50000E-03 0.00000E+00 0.00000E+00
 -1       212 7.50000E-03 0.00000E+00 1.00000E-02
 -1       213 5.00000E-03 2.50000E-03 0.00000E+00
 -1       214 5.00000E-03 0.00000E+00 5.00000E-03
 -1       215 5.00000E-03 2.50000E-03 1.00000E-02
 -1       216 1.00000E-02 0.00000E+00 2.00000E-02
 -1       217 5.00000E-03 0.00000E+00 2.00000E-02
 -1       218 1.00000E-02 0.00000E+00 1.50000E-02
 -1       219 1.00000E-02 2.50000E-03 2.00000E-02
 -1       220 7.50000E-03 0.00000E+00 2.00000E-02
 -1       221 5.00000E-03 0.00000E+00 1.50000E-02
 -1       222 5.00000E-03 2.50000E-03 2.00000E-02
 -1       223 1.00000E-02 0.00000E+00 3.00000E-02
 -1       224 5.00000E-03 0.00000E+00 3.00000E-02
 -1       225 1.00000E-02 0.00000E+00 2.50000E-02
 -1       226 1.00000E-02 2.50000E-03 3.00000E-02
 -1       227 7.50000E-03 0.00000E+00 3.00000E-02
 -1       228 5.00000E-03 0.00000E+00 2.50000E-02
 -1       229 5.00000E-03 2.50000E-03 3.00000E-02
 -1       230 1.00000E-02 0.00000E+00 4.00000E-02
 -1       231 5.00000E-03 0.00000E+00 4.00000E-02
 -1       232 1.00000E-02 0.00000E+00 3.50000E-02
 -1       233 1.00000E-02 2.50000E-03 4.00000E-02
 -1       234 7.50000E-03 0.00000E+00 4.00000E-02
 -1       235 5.00000E-03 0.00000E+00 3.50000E-02
 -1       236 5.00000E-03 2.50000E-03 4.00000E-02
 -1       237 1.00000E-02 0.00000E+00 5.00000E-02
 -1       238 5.00000E-03 0.00000E+00 5.00000E-02
 -1       239 1.00000E-02 0.00000E+00 4.50000E-02
 -1       240 1.00000E-02 2.50000E-03 5.00000E-02
 -1       241 7.50000E-03 0.00000E+00 5.00000E-02
 -1       242 5.00000E-03 0.00000E+00 4.50000E-02
 -1       243 5.00000E-03 2.50000E-03 5.00000E-02
 -1       244 1.00000E-02 0.00000E+00 6.00000E-02
 -1       245 5.00000E-03 0.00000E+00 6.00000E-02
 -1       246 1.00000E-02 0.00000E+00 5.50000E-02
 -1       247 1.00000E-02 2.50000E-03 6.00000E-02
 -1       248 7.50000E-03 0.00000E+00 6.00000E-02
 -1       249 5.00000E-03 0.00000E+00 5.50000E-02
 -1       250 5.00000E-03 2.50000E-03 6.00000E-02
 -1       251 1.00000E-02 0.00000E+00 7.00000E-02
 -1       252 5.00000E-03 0.00000E+00 7.00000E-02
 -1       253 1.00000E-02 0.00000E+00 6.50000E-02
 -1       254 1.00000E-02 2.50000E-03 7.00000E-02
 -1       255 7.50000E-03 0.00000E+00 7.00000E-02
 -1       256 5.00000E-03 0.00000E+00 6.50000E-02
 -1       257 5.00000E-03 2.50000E-03 7.00000E-02
 -1       258 1.00000E-02 0.00000E+00 8.00000E-02
 -1       259 5.00000E-03 0.00000E+00 8.00000E-02
 -1       260 1.00000E-02 0.00000E+00 7.50000E-02
 -1       261 1.00000E-02 2.50000E-03 8.00000E-02
 -1       262 7.50000E-03 0.00000E+00 8.00000E-02
 -1       263 5.00000E-03 0.00000E+00 7.50000E-02
 -1       264 5.00000E-03 2.50000E-03 8.00000E-02
 -1       265 1.00000E-02 0.00000E+00 9.00000E-02
 -1       266 5.00000E-03 0.00000E+00 9.00000E-02
 -1       267 1.00000E-02 0.00000E+00 8.50000E-02
 -1       268 1.00000E-02 2.50000E-03 9.00000E-02
 -1       269 7.50000E-03 0.00000E+00 9.00000E-02
 -1       270 5.00000E-03 0.00000E+00 8.50000E-02
 -1       271 5.00000E-03 2.50000E-03 9.00000E-02
 -1       272 1.00000E-02 0.00000E+00 1.00000E-01
 -1       273 5.00000E-03 0.00000E+00 1.00000E-01
 -1       274 1.00000E-02 0.00000E+00 9.50000E-02
 -1       275 1.00000E-02 2.50000E-03 1.00000E-01
 -1       276 7.50000E-03 0.00000E+00 1.00000E-01
 -1       277 5.00000E-03 0.00000E+00 9.50000E-02
 -1       278 5.00000E-03 2.50000E-03 1.00000E-01
 -1       279 0.00000E+00 0.00000E+00 0.00000E+00
 -1       280 0.00000E+00 0.00000E+00 1.00000E-02
 -1       281 2.50000E-03 0.00000E+00 0.00000E+00
 -1       282 2.50000E-03 0.00000E+00 1.00000E-02
 -1       283 0.00000E+00 2.50000E-03 0.00000E+00
 -1       284 0.00000E+00 0.00000E+00 5.00000E-03
 -1       285 0.00000E+00 2.50000E-03 1.00000E-02
 -1       286 0.00000E+00 0.00000E+00 2.00000E-02
 -1       287 2.50000E-03 0.00000E+00 2.00000E-02
 -1       288 0.00000E+00 0.00000E+00 1.50000E-02
 -1       289 0.00000E+00 2.50000E-03 2.00000E-02
 -1       290 0.00000E+00 0.00000E+00 3.00000E-02
 -1       291 2.50000E-03 0.00000E+00 3.00000E-02
 -1       292 0.00000E+00 0.00000E+00 2.50000E-02
 -1       293 0.00000E+00 2.50000E-03 3.00000E-02
 -1       294 0.00000E+00 0.00000E+00 4.00000E-02
 -1       295 2.50000E-03 0.00000E+00 4.00000E-02
 -1       296 0.00000E+00 0.00000E+00 3.50000E-02
 -1       297 0.00000E+00 2.50000E-03 4.00000E-02
 -1       298 0.00000E+00 0.00000E+00 5.00000E-02
 -1       299 2.50000E-03 0.00000E+00 5.00000E-02
 -1       300 0.00000E+00 0.00000E+00 4.50000E-02
 -1       301 0.00000E+00 2.50000E-03 5.00000E-02
 -1       302 0.00000E+00 0.00000E+00 6.00000E-02
 -1       303 2.50000E-03 0.00000E+00 6.00000E-02
 -1       304 0.00000E+00 0.00000E+00 5.50000E-02
 -1       305 0.00000E+00 2.50000E-03 6.00000E-02
 -1       306 0.00000E+00 0.00000E+00 7.00000E-02
 -1       307 2.50000E-03 0.00000E+00 7.00000E-02
 -1       308 0.00000E+00 0.00000E+00 6.50000E-02
 -1       309 0.00000E+00 2.50000E-03 7.00000E-02
 -1       310 0.00000E+00 0.00000E+00 8.00000E-02
 -1       311 2.50000E-03 0.00000E+00 8.00000E-02
 -1       312 0.00000E+00 0.00000E+00 7.50000E-02
 -1       313 0.00000E+00 2.50000E-03 8.00000E-02
 -1       314 0.00000E+00 0.00000E+00 9.00000E-02
 -1       315 2.50000E-03 0.00000E+00 9.00000E-02
 -1       316 0.00000E+00 0.00000E+00 8.50000E-02
 -1       317 0.00000E+00 2.50000E-03 9.00000E-02
 -1       318 0.00000E+00 0.00000E+00 1.00000E-01
 -1       319 2.50000E-03 0.00000E+00 1.00000E-01
 -1       320 0.00000E+00 0.00000E+00 9.50000E-02
 -1       321 0.00000E+00 2.50000E-03 1.00000E-01
 -3
    3C                            40                                     1
 -1         1    4    0    1
 -2         1         2         3         4         5         6         7         8         9        10
 -2        11        12        13        14        15        16        17        18        19        20
 -1         2    4    0    1
 -2         4         3        21        22         8         7        23        24        11        25
 -2        26        27        16        15        28        29        19        30        31        32
 -1         3    4    0    1
 -2        22        21        33        34        24        23        35        36        26        37
 -2        38        39        29        28        40        41        31        42        43        44
 -1         4    4    0    1
 -2        34        33        45        46        36        35        47        48        38        49
 -2        50        51        41        40        52        53        43        54        55        56
 -1         5    4    0    1
 -2        46        45        57        58        48        47        59        60        50        61
 -2        62        63        53        52        64        65        55        66        67        68
 -1         6    4    0    1
 -2        58        57        69        70        60        59        71        72        62        73
 -2        74        75        65        64        76        77        67        78        79        80
 -1         7    4    0    1
 -2        70        69        81        82        72        71        83        84        74        85
 -2        86        87        77        76        88        89        79        90        91        92
 -1         8    4    0    1
 -2        82        81        93        94        84        83        95        96        86        97
 -2        98        99        89        88       100       101        91       102       103       104
 -1         9    4    0    1
 -2        94        93       105       106        96        95       107       108        98       109
 -2       110       111       101       100       112       113       103       114       115       116
 -1        10    4    0    1
 -2       106       105       117       118       108       107       119       120       110       121
 -2       122       123       113       112       124       125       115       126       127       128
 -1        11    4    0    1
 -2         5         6         7         8       129       130       131       132        17        18
 -2        19        20       133       134       135       136       137       138       139       140
 -1        12    4    0    1
 -2         8         7        23        24       132       131       141       142        19        30
 -2        31        32       136       135       143       144       139       145       146       147
 -1        13    4    0    1
 -2        24        23        35        36       142       141       148       149        31        42
 -2        43        44       144       143       150       151       146       152       153       154
 -1        14    4    0    1
 -2        36        35        47        48       149       148       155       156        43        54
 -2        55        56       151       150       157       158       153       159       160       161
 -1        15    4    0    1
 -2        48        47        59        60       156       155       162       163        55        66
 -2        67        68       158       157       164       165       160       166       167       168
 -1        16    4    0    1
 -2        60        59        71        72       163       162       169       170        67        78
 -2        79        80       165       164       171       172       167       173       174       175
 -1        17    4    0    1
 -2        72        71        83        84       170       169       176       177        79        90
 -2        91        92       172       171       178       179       174       180       181       182
 -1        18    4    0    1
 -2        84        83        95        96       177       176       183       184        91       102
 -2       103       104       179       178       185       186       181       187       188       189
 -1        19    4    0    1
 -2        96        95       107       108       184       183       190       191       103       114
 -2       115       116       186       185       192       193       188       194       195       196
 -1        20    4    0    1
 -2       108       107       119       120       191       190       197       198       115       126
 -2       127       128       193       192       199       200       195       201       202       203
 -1        21    4    0    1
 -2         2       204       205         3         6       206       207         7       208       209
 -2       210        10        14       211       212        15       213       214       215        18
 -1        22    4    0    1
 -2         3       205       216        21         7       207       217        23       210       218
 -2       219        25        15       212       220        28       215       221       222        30
 -1        23    4    0    1
 -2        21       216       223        33        23       217       224        35       219       225
 -2       226        37        28       220       227        40       222       228       229        42
 -1        24    4    0    1
 -2        33       223       230        45        35       224       231        47       226       232
 -2       233        49        40       227       234        52       229       235       236        54
 -1        25    4    0    1
 -2        45       230       237        57        47       231       238        59       233       239
 -2       240        61        52       234       241        64       236       242       243        66
 -1        26    4    0    1
 -2        57       237       244        69        59       238       245        71       240       246
 -2       247        73        64       241       248        76       243       249       250        78
 -1        27    4    0    1
 -2        69       244       251        81        71       245       252        83       247       253
 -2       254        85        76       248       255        88       250       256       257        90
 -1        28    4    0    1
 -2        81       251       258        93        83       252       259        95       254       260
 -2       261        97        88       255       262       100       257       263       264       102
 -1        29    4    0    1
 -2        93       258       265       105        95       259       266       107       261       267
 -2       268       109       100       262       269       112       264       270       271       114
 -1        30    4    0    1
 -2       105       265       272       117       107       266       273       119       268       274
 -2       275       121       112       269       276       124       271       277       278       126
 -1        31    4    0    1
 -2         6       206       207         7       130       279       280       131       213       214
 -2       215        18       134       281       282       135       283       284       285       138
 -1        32    4    0    1
 -2         7       207       217        23       131       280       286       141       215       221
 -2       222        30       135       282       287       143       285       288       289       145
 -1        33    4    0    1
 -2        23       217       224        35       141       286       290       148       222       228
 -2       229        42       143       287       291       150       289       292       293       152
 -1        34    4    0    1
 -2        35       224       231        47       148       290       294       155       229       235
 -2       236        54       150       291       295       157       293       296       297       159
 -1        35    4    0    1
 -2        47       231       238        59       155       294       298       162       236       242
 -2       243        66       157       295       299       164       297       300       301       166
 -1        36    4    0    1
 -2        59       238       245        71       162       298       302       169       243       249
 -2       250        78       164       299       303       171       301       304       305       173
 -1        37    4    0    1
 -2        71       245       252        83       169       302       306       176       250       256
 -2       257        90       171       303       307       178       305       308       309       180
 -1        38    4    0    1
 -2        83       252       259        95       176       306       310       183       257       263
 -2       264       102       178       307       311       185       309       312       313       187
 -1        39    4    0    1
 -2        95       259       266       107       183       310       314       190       264       270
 -2       271       114       185       311       315       192       313       316       317       194
 -1        40    4    0    1
 -2       107       266       273       119       190       314       318       197       271       277
 -2       278       126       192       315       319       199       317       320       321       201
 -3
    1PSTEP                         1           1           1          
  100CL  101 1.000000000         321                     0    1           1
 -4  DISP        4    1
 -5  D1          1    2    1    0
 -5  D2          1    2    2    0
 -5  D3          1    2    3    0
 -5  ALL         1    2    0    0    1ALL
 -1         1 0.00000E+00 0.00000E+00 0.00000E+00
 -1         2 0.00000E+00 0.00000E+00 0.00000E+00
 -1         3 7.07157E-09-8.96909E-21-4.55758E-08
 -1         4 6.84802E-09 6.84802E-09-4.53697E-08
 -1         5 0.00000E+00 0.00000E+00 0.00000E+00
 -1         6 0.00000E+00 0.00000E+00 0.00000E+00
 -1         7 5.86854E-21-1.07452E-20-4.57952E-08
 -1         8 4.44718E-21 7.07157E-09-4.55758E-08
 -1         9 0.00000E+00 0.00000E+00 0.00000E+00
 -1        10 7.06424E-09-1.47204E-21-2.13085E-08
 -1        11 6.94550E-09 3.44221E-09-4.53548E-08
 -1        12 7.05511E-09 7.05511E-09-2.25330E-08
 -1        13 0.00000E+00 0.00000E+00 0.00000E+00
 -1        14 0.00000E+00 0.00000E+00 0.00000E+00
 -1        15 3.53116E-09-1.00973E-20-4.55688E-08
 -1        16 3.44221E-09 6.94550E-09-4.53548E-08
 -1        17 0.00000E+00 0.00000E+00 0.00000E+00
 -1        18 1.48716E-21-2.67492E-21-2.00508E-08
 -1        19 5.28938E-21 3.53116E-09-4.55688E-08
 -1        20 5.91333E-22 7.06424E-09-2.13085E-08
 -1        21 7.15612E-09-3.90177E-20-9.29602E-08
 -1        22 7.12314E-09 7.12314E-09-9.29287E-08
 -1        23 2.25270E-20-4.17092E-20-9.29569E-08
 -1        24 2.01672E-20 7.15612E-09-9.29602E-08
 -1        25 7.12783E-09-2.15444E-20-6.92187E-08
 -1        26 7.14580E-09 3.55227E-09-9.29680E-08
 -1        27 7.15712E-09 7.15712E-09-6.92166E-08
 -1        28 3.57489E-09-4.05104E-20-9.29829E-08
 -1        29 3.55227E-09 7.14580E-09-9.29680E-08
 -1        30 1.29316E-20-2.38107E-20-6.92415E-08
 -1        31 2.14240E-20 3.57489E-09-9.29829E-08
 -1        32 1.10034E-20 7.12783E-09-6.92187E-08
 -1        33 7.14575E-09-8.65794E-20-1.40607E-07
 -1        34 7.14135E-09 7.14135E-09-1.40609E-07
 -1        35 4.86015E-20-9.00684E-20-1.40601E-07
 -1        36 4.53352E-20 7.14575E-09-1.40607E-07
 -1        37 7.13613E-09-6.08119E-20-1.16776E-07
 -1        38 7.14134E-09 3.57303E-09-1.40602E-07
 -1        39 7.13939E-09 7.13939E-09-1.16784E-07
 -1        40 3.57348E-09-8.84704E-20-1.40598E-07
 -1        41 3.57303E-09 7.14134E-09-1.40602E-07
 -1        42 3.44320E-20-6.39006E-20-1.16780E-07
 -1        43 4.70496E-20 3.57348E-09-1.40598E-07
 -1        44 3.15802E-20 7.13613E-09-1.16776E-07
 -1        45 7.14243E-09-1.49163E-19-1.88216E-07
 -1        46 7.14258E-09 7.14258E-09-1.88215E-07
 -1        47 8.31574E-20-1.53558E-19-1.88217E-07
 -1        48 7.89252E-20 7.14243E-09-1.88216E-07
 -1        49 7.14435E-09-1.16173E-19-1.64411E-07
 -1        50 7.14320E-09 3.57064E-09-1.88217E-07
 -1        51 7.14414E-09 7.14414E-09-1.64410E-07
 -1        52 3.57110E-09-1.51460E-19-1.88218E-07
 -1        53 3.57064E-09 7.14320E-09-1.88217E-07
 -1        54 6.48195E-20-1.20119E-19-1.64411E-07
 -1        55 8.11229E-20 3.57110E-09-1.88218E-07
 -1        56 6.11634E-20 7.14435E-09-1.64411E-07
 -1        57 7.14303E-09-2.22858E-19-2.35837E-07
 -1        58 7.14290E-09 7.14290E-09-2.35838E-07
 -1        59 1.24531E-19-2.28337E-19-2.35837E-07
 -1        60 1.19185E-19 7.14303E-09-2.35837E-07
 -1        61 7.14243E-09-1.84901E-19-2.12027E-07
 -1        62 7.14275E-09 3.57163E-09-2.35837E-07
 -1        63 7.14255E-09 7.14255E-09-2.12027E-07
 -1        64 3.57154E-09-2.25656E-19-2.35837E-07
 -1        65 3.57163E-09 7.14275E-09-2.35837E-07
 -1        66 1.03184E-19-1.89754E-19-2.12027E-07
 -1        67 1.21871E-19 3.57154E-09-2.35837E-07
 -1        68 9.83536E-20 7.14243E-09-2.12027E-07
 -1        69 7.14280E-09-3.04625E-19-2.83456E-07
 -1        70 7.14284E-09 7.14284E-09-2.83456E-07
 -1        71 1.69391E-19-3.11403E-19-2.83456E-07
 -1        72 1.63087E-19 7.14280E-09-2.83456E-07
 -1        73 7.14298E-09-2.62850E-19-2.59647E-07
 -1        74 7.14288E-09 3.57137E-09-2.83456E-07
 -1        75 7.14294E-09 7.14294E-09-2.59647E-07
 -1        76 3.57140E-09-3.08088E-19-2.83456E-07
 -1        77 3.57137E-09 7.14288E-09-2.83456E-07
 -1        78 1.46612E-19-2.68898E-19-2.59647E-07
 -1        79 1.66292E-19 3.57140E-09-2.83456E-07
 -1        80 1.40838E-19 7.14298E-09-2.59647E-07
 -1        81 7.14287E-09-3.94147E-19-3.31075E-07
 -1        82 7.14286E-09 7.14286E-09-3.31075E-07
 -1        83 2.16414E-19-4.01644E-19-3.31075E-07
 -1        84 2.09000E-19 7.14287E-09-3.31075E-07
 -1        85 7.14282E-09-3.48336E-19-3.07265E-07
 -1        86 7.14285E-09 3.57144E-09-3.31075E-07
 -1        87 7.14284E-09 7.14284E-09-3.07266E-07
 -1        88 3.57144E-09-3.97967E-19-3.31075E-07
 -1        89 3.57144E-09 7.14285E-09-3.31075E-07
 -1        90 1.92790E-19-3.55561E-19-3.07265E-07
 -1        91 2.12690E-19 3.57144E-09-3.31075E-07
 -1        92 1.85884E-19 7.14282E-09-3.07265E-07
 -1        93 7.14285E-09-4.89891E-19-3.78694E-07
 -1        94 7.14286E-09 7.14286E-09-3.78694E-07
 -1        95 2.63670E-19-4.98329E-19-3.78694E-07
 -1        96 2.55238E-19 7.14285E-09-3.78694E-07
 -1        97 7.14287E-09-4.41354E-19-3.54885E-07
 -1        98 7.14286E-09 3.57142E-09-3.78694E-07
 -1        99 7.14286E-09 7.14286E-09-3.54885E-07
 -1       100 3.57143E-09-4.94122E-19-3.78694E-07
 -1       101 3.57142E-09 7.14286E-09-3.78694E-07
 -1       102 2.39968E-19-4.49397E-19-3.54885E-07
 -1       103 2.59485E-19 3.57143E-09-3.78694E-07
 -1       104 2.32043E-19 7.14287E-09-3.54885E-07
 -1       105 7.14286E-09-5.89144E-19-4.26313E-07
 -1       106 7.14286E-09 7.14286E-09-4.26313E-07
 -1       107 3.13458E-19-5.98720E-19-4.26313E-07
 -1       108 3.04118E-19 7.14286E-09-4.26313E-07
 -1       109 7.14285E-09-5.39041E-19-4.02504E-07
 -1       110 7.14286E-09 3.57143E-09-4.26313E-07
 -1       111 7.14286E-09 7.14286E-09-4.02504E-07
 -1       112 3.57143E-09-5.93938E-19-4.26313E-07
 -1       113 3.57143E-09 7.14286E-09-4.26313E-07
 -1       114 2.88239E-19-5.48116E-19-4.02504E-07
 -1       115 3.08776E-19 3.57143E-09-4.26313E-07
 -1       116 2.79144E-19 7.14285E-09-4.02504E-07
 -1       117 7.14286E-09-6.90702E-19-4.73932E-07
 -1       118 7.14286E-09 7.14286E-09-4.73932E-07
 -1       119 3.65457E-19-7.00387E-19-4.73932E-07
 -1       120 3.55840E-19 7.14286E-09-4.73932E-07
 -1       121 7.14286E-09-6.39652E-19-4.50123E-07
 -1       122 7.14286E-09 3.57143E-09-4.73932E-07
 -1       123 7.14286E-09 7.14286E-09-4.50123E-07
 -1       124 3.57143E-09-6.95614E-19-4.73932E-07
 -1       125 3.57143E-09 7.14286E-09-4.73932E-07
 -1       126 3.39419E-19-6.49386E-19-4.50123E-07
 -1       127 3.60683E-19 3.57143E-09-4.73932E-07
 -1       128 3.29978E-19 7.14286E-09-4.50123E-07
 -1       129 0.00000E+00 0.00000E+00 0.00000E+00
 -1       130 0.00000E+00 0.00000E+00 0.00000E+00
 -1       131-7.07157E-09-1.10436E-20-4.55758E-08
 -1       132-6.84802E-09 6.84802E-09-4.53697E-08
 -1       133 0.00000E+00 0.00000E+00 0.00000E+00
 -1       134 0.00000E+00 0.00000E+00 0.00000E+00
 -1       135-3.53116E-09-1.11346E-20-4.55688E-08
 -1       136-3.44221E-09 6.94550E-09-4.53548E-08
 -1       137 0.00000E+00 0.00000E+00 0.00000E+00
 -1       138-7.06424E-09-2.48432E-21-2.13085E-08
 -1       139-6.94550E-09 3.44221E-09-4.53548E-08
 -1       140-7.05511E-09 7.05511E-09-2.25330E-08
 -1       141-7.15612E-09-4.31045E-20-9.29602E-08
 -1       142-7.12314E-09 7.12314E-09-9.29287E-08
 -1       143-3.57489E-09-4.25511E-20-9.29829E-08
 -1       144-3.55227E-09 7.14580E-09-9.29680E-08
 -1       145-7.12783E-09-2.46443E-20-6.92187E-08
 -1       146-7.14580E-09 3.55227E-09-9.29680E-08
 -1       147-7.15712E-09 7.15712E-09-6.92166E-08
 -1       148-7.14575E-09-9.24400E-20-1.40607E-07
 -1       149-7.14135E-09 7.14135E-09-1.40609E-07
 -1       150-3.57348E-09-9.14074E-20-1.40598E-07
 -1       151-3.57303E-09 7.14134E-09-1.40602E-07
 -1       152-7.13613E-09-6.57730E-20-1.16776E-07
 -1       153-7.14134E-09 3.57303E-09-1.40602E-07
 -1       154-7.13939E-09 7.13939E-09-1.16784E-07
 -1       155-7.14243E-09-1.57081E-19-1.88216E-07
 -1       156-7.14258E-09 7.14258E-09-1.88215E-07
 -1       157-3.57110E-09-1.55436E-19-1.88218E-07
 -1       158-3.57064E-09 7.14320E-09-1.88217E-07
 -1       159-7.14435E-09-1.23043E-19-1.64411E-07
 -1       160-7.14320E-09 3.57064E-09-1.88217E-07
 -1       161-7.14414E-09 7.14414E-09-1.64410E-07
 -1       162-7.14303E-09-2.33273E-19-2.35837E-07
 -1       163-7.14290E-09 7.14290E-09-2.35838E-07
 -1       164-3.57154E-09-2.30867E-19-2.35837E-07
 -1       165-3.57163E-09 7.14275E-09-2.35837E-07
 -1       166-7.14243E-09-1.93965E-19-2.12027E-07
 -1       167-7.14275E-09 3.57163E-09-2.35837E-07
 -1       168-7.14255E-09 7.14255E-09-2.12027E-07
 -1       169-7.14280E-09-3.17415E-19-2.83456E-07
 -1       170-7.14284E-09 7.14284E-09-2.83456E-07
 -1       171-3.57140E-09-3.14484E-19-2.83456E-07
 -1       172-3.57137E-09 7.14288E-09-2.83456E-07
 -1       173-7.14298E-09-2.74348E-19-2.59647E-07
 -1       174-7.14288E-09 3.57137E-09-2.83456E-07
 -1       175-7.14294E-09 7.14294E-09-2.59647E-07
 -1       176-7.14287E-09-4.08820E-19-3.31075E-07
 -1       177-7.14286E-09 7.14286E-09-3.31075E-07
 -1       178-3.57144E-09-4.05299E-19-3.31075E-07
 -1       179-3.57144E-09 7.14285E-09-3.31075E-07
 -1       180-7.14282E-09-3.62124E-19-3.07265E-07
 -1       181-7.14285E-09 3.57144E-09-3.31075E-07
 -1       182-7.14284E-09 7.14284E-09-3.07266E-07
 -1       183-7.14285E-09-5.06503E-19-3.78694E-07
 -1       184-7.14286E-09 7.14286E-09-3.78694E-07
 -1       185-3.57143E-09-5.02446E-19-3.78694E-07
 -1       186-3.57142E-09 7.14286E-09-3.78694E-07
 -1       187-7.14287E-09-4.57238E-19-3.54885E-07
 -1       188-7.14286E-09 3.57142E-09-3.78694E-07
 -1       189-7.14286E-09 7.14286E-09-3.54885E-07
 -1       190-7.14286E-09-6.07935E-19-4.26313E-07
 -1       191-7.14286E-09 7.14286E-09-4.26313E-07
 -1       192-3.57143E-09-6.03238E-19-4.26313E-07
 -1       193-3.57143E-09 7.14286E-09-4.26313E-07
 -1       194-7.14285E-09-5.56857E-19-4.02504E-07
 -1       195-7.14286E-09 3.57143E-09-4.26313E-07
 -1       196-7.14286E-09 7.14286E-09-4.02504E-07
 -1       197-7.14286E-09-7.09813E-19-4.73932E-07
 -1       198-7.14286E-09 7.14286E-09-4.73932E-07
 -1       199-3.57143E-09-7.05196E-19-4.73932E-07
 -1       200-3.57143E-09 7.14286E-09-4.73932E-07
 -1       201-7.14286E-09-6.58838E-19-4.50123E-07
 -1       202-7.14286E-09 3.57143E-09-4.73932E-07
 -1       203-7.14286E-09 7.14286E-09-4.50123E-07
 -1       204 0.00000E+00 0.00000E+00 0.00000E+00
 -1       205 6.84802E-09-6.84802E-09-4.53697E-08
 -1       206 0.00000E+00 0.00000E+00 0.00000E+00
 -1       207 6.54049E-21-7.07157E-09-4.55758E-08
 -1       208 0.00000E+00 0.00000E+00 0.00000E+00
 -1       209 7.05511E-09-7.05511E-09-2.25330E-08
 -1       210 6.94550E-09-3.44221E-09-4.53548E-08
 -1       211 0.00000E+00 0.00000E+00 0.00000E+00
 -1       212 3.44221E-09-6.94550E-09-4.53548E-08
 -1       213 0.00000E+00 0.00000E+00 0.00000E+00
 -1       214 1.61685E-21-7.06424E-09-2.13085E-08
 -1       215 6.32374E-21-3.53116E-09-4.55688E-08
 -1       216 7.12314E-09-7.12314E-09-9.29287E-08
 -1       217 2.42295E-20-7.15612E-09-9.29602E-08
 -1       218 7.15712E-09-7.15712E-09-6.92166E-08
 -1       219 7.14580E-09-3.55227E-09-9.29680E-08
 -1       220 3.55227E-09-7.14580E-09-9.29680E-08
 -1       221 1.41024E-20-7.12783E-09-6.92187E-08
 -1       222 2.34645E-20-3.57489E-09-9.29829E-08
 -1       223 7.14135E-09-7.14135E-09-1.40609E-07
 -1       224 5.12369E-20-7.14575E-09-1.40607E-07
 -1       225 7.13939E-09-7.13939E-09-1.16784E-07
 -1       226 7.14134E-09-3.57303E-09-1.40602E-07
 -1       227 3.57303E-09-7.14134E-09-1.40602E-07
 -1       228 3.66109E-20-7.13613E-09-1.16776E-07
 -1       229 5.00058E-20-3.57348E-09-1.40598E-07
 -1       230 7.14258E-09-7.14258E-09-1.88215E-07
 -1       231 8.68288E-20-7.14243E-09-1.88216E-07
 -1       232 7.14414E-09-7.14414E-09-1.64410E-07
 -1       233 7.14320E-09-3.57064E-09-1.88217E-07
 -1       234 3.57064E-09-7.14320E-09-1.88217E-07
 -1       235 6.79741E-20-7.14435E-09-1.64411E-07
 -1       236 8.50776E-20-3.57110E-09-1.88218E-07
 -1       237 7.14290E-09-7.14290E-09-2.35838E-07
 -1       238 1.29455E-19-7.14303E-09-2.35837E-07
 -1       239 7.14255E-09-7.14255E-09-2.12027E-07
 -1       240 7.14275E-09-3.57163E-09-2.35837E-07
 -1       241 3.57163E-09-7.14275E-09-2.35837E-07
 -1       242 1.07560E-19-7.14243E-09-2.12027E-07
 -1       243 1.27027E-19-3.57154E-09-2.35837E-07
 -1       244 7.14284E-09-7.14284E-09-2.83456E-07
 -1       245 1.75673E-19-7.14280E-09-2.83456E-07
 -1       246 7.14294E-09-7.14294E-09-2.59647E-07
 -1       247 7.14288E-09-3.57137E-09-2.83456E-07
 -1       248 3.57137E-09-7.14288E-09-2.83456E-07
 -1       249 1.52290E-19-7.14298E-09-2.59647E-07
 -1       250 1.72539E-19-3.57140E-09-2.83456E-07
 -1       251 7.14286E-09-7.14286E-09-3.31075E-07
 -1       252 2.23799E-19-7.14287E-09-3.31075E-07
 -1       253 7.14284E-09-7.14284E-09-3.07266E-07
 -1       254 7.14285E-09-3.57144E-09-3.31075E-07
 -1       255 3.57144E-09-7.14285E-09-3.31075E-07
 -1       256 1.99574E-19-7.14282E-09-3.07265E-07
 -1       257 2.20086E-19-3.57144E-09-3.31075E-07
 -1       258 7.14286E-09-7.14286E-09-3.78694E-07
 -1       259 2.71936E-19-7.14285E-09-3.78694E-07
 -1       260 7.14286E-09-7.14286E-09-3.54885E-07
 -1       261 7.14286E-09-3.57142E-09-3.78694E-07
 -1       262 3.57142E-09-7.14286E-09-3.78694E-07
 -1       263 2.47747E-19-7.14287E-09-3.54885E-07
 -1       264 2.67839E-19-3.57143E-09-3.78694E-07
 -1       265 7.14286E-09-7.14286E-09-4.26313E-07
 -1       266 3.22872E-19-7.14286E-09-4.26313E-07
 -1       267 7.14286E-09-7.14286E-09-4.02504E-07
 -1       268 7.14286E-09-3.57143E-09-4.26313E-07
 -1       269 3.57143E-09-7.14286E-09-4.26313E-07
 -1       270 2.97234E-19-7.14285E-09-4.02504E-07
 -1       271 3.18183E-19-3.57143E-09-4.26313E-07
 -1       272 7.14286E-09-7.14286E-09-4.73932E-07
 -1       273 3.75096E-19-7.14286E-09-4.73932E-07
 -1       274 7.14286E-09-7.14286E-09-4.50123E-07
 -1       275 7.14286E-09-3.57143E-09-4.73932E-07
 -1       276 3.57143E-09-7.14286E-09-4.73932E-07
 -1       277 3.48830E-19-7.14286E-09-4.50123E-07
 -1       278 3.70264E-19-3.57143E-09-4.73932E-07
 -1       279 0.00000E+00 0.00000E+00 0.00000E+00
 -1       280-6.84802E-09-6.84802E-09-4.53697E-08
 -1       281 0.00000E+00 0.00000E+00 0.00000E+00
 -1       282-3.44221E-09-6.94550E-09-4.53548E-08
 -1       283 0.00000E+00 0.00000E+00 0.00000E+00
 -1       284-7.05511E-09-7.05511E-09-2.25330E-08
 -1       285-6.94550E-09-3.44221E-09-4.53548E-08
 -1       286-7.12314E-09-7.12314E-09-9.29287E-08
 -1       287-3.55227E-09-7.14580E-09-9.29680E-08
 -1       288-7.15712E-09-7.15712E-09-6.92166E-08
 -1       289-7.14580E-09-3.55227E-09-9.29680E-08
 -1       290-7.14135E-09-7.14135E-09-1.40609E-07
 -1       291-3.57303E-09-7.14134E-09-1.40602E-07
 -1       292-7.13939E-09-7.13939E-09-1.16784E-07
 -1       293-7.14134E-09-3.57303E-09-1.40602E-07
 -1       294-7.14258E-09-7.14258E-09-1.88215E-07
 -1       295-3.57064E-09-7.14320E-09-1.88217E-07
 -1       296-7.14414E-09-7.14414E-09-1.64410E-07
 -1       297-7.14320E-09-3.57064E-09-1.88217E-07
 -1       298-7.14290E-09-7.14290E-09-2.35838E-07
 -1       299-3.57163E-09-7.14275E-09-2.35837E-07
 -1       300-7.14255E-09-7.14255E-09-2.12027E-07
 -1       301-7.14275E-09-3.57163E-09-2.35837E-07
 -1       302-7.14284E-09-7.14284E-09-2.83456E-07
 -1       303-3.57137E-09-7.14288E-09-2.83456E-07
 -1       304-7.14294E-09-7.14294E-09-2.59647E-07
 -1       305-7.14288E-09-3.57137E-09-2.83456E-07
 -1       306-7.14286E-09-7.14286E-09-3.31075E-07
 -1       307-3.57144E-09-7.14285E-09-3.31075E-07
 -1       308-7.14284E-09-7.14284E-09-3.07266E-07
 -1       309-7.14285E-09-3.57144E-09-3.31075E-07
 -1       310-7.14286E-09-7.14286E-09-3.78694E-07
 -1       311-3.57142E-09-7.14286E-09-3.78694E-07
 -1       312-7.14286E-09-7.14286E-09-3.54885E-07
 -1       313-7.14286E-09-3.57142E-09-3.78694E-07
 -1       314-7.14286E-09-7.14286E-09-4.26313E-07
 -1       315-3.57143E-09-7.14286E-09-4.26313E-07
 -1       316-7.14286E-09-7.14286E-09-4.02504E-07
 -1       317-7.14286E-09-3.57143E-09-4.26313E-07
 -1       318-7.14286E-09-7.14286E-09-4.73932E-07
 -1       319-3.57143E-09-7.14286E-09-4.73932E-07
 -1       320-7.14286E-09-7.14286E-09-4.50123E-07
 -1       321-7.14286E-09-3.57143E-09-4.73932E-07
 -3
    1PSTEP                         2           1           1          
  100CL  101 1.000000000         321                     0    1           1
 -4  STRESS      6    1
 -5  SXX         1    4    1    1
 -5  SYY         1    4    2    2
 -5  SZZ         1    4    3    3
 -5  SXY         1    4    1    2
 -5  SYZ         1    4    2    3
 -5  SZX         1    4    3    1
 -1         1-5.42309E+05-5.42309E+05-1.26535E+06 4.34524E-02 1.72624E+05 1.72624E+05
 -1         2-4.80472E+05-4.80472E+05-1.12107E+06-7.56017E-12 2.47827E-08 1.71113E+05
 -1         3-2.92162E+04-3.46842E+04-1.05528E+06 3.53680E-09 2.56387E-09-3.18720E+04
 -1         4-2.10120E+04-2.10120E+04-9.97527E+05-5.37522E+03-3.14077E+04-3.14077E+04
 -1         5-4.80472E+05-4.80472E+05-1.12107E+06-7.19069E-12 1.71113E+05-1.65082E-08
 -1         6-4.16865E+05-4.16865E+05-9.72652E+05-2.43165E-11 2.90669E-10 6.41549E-10
 -1         7-5.91481E+04-5.91481E+04-1.12541E+06 2.01968E-10-8.55198E-09 5.12227E-09
 -1         8-3.46842E+04-2.92162E+04-1.05528E+06-1.51135E-09-3.18720E+04-7.82893E-09
 -1         9-5.09971E+05-5.09971E+05-1.18997E+06-1.65482E-02 8.64597E+04 1.71754E+05
 -1        10 1.95856E+04 2.01678E+04-9.45213E+05-5.93639E-09 1.15260E-08 3.30296E+04
 -1        11-2.60694E+04-2.83416E+04-1.02717E+06-4.58635E+03-1.02671E+04-3.15954E+04
 -1        12 1.72228E+04 1.72228E+04-9.42477E+05 6.28515E+02 3.17232E+04 3.17232E+04
 -1        13-5.09971E+05-5.09971E+05-1.18997E+06-1.65482E-02 1.71754E+05 8.64597E+04
 -1        14-4.47263E+05-4.47263E+05-1.04365E+06 1.61577E-11 1.07074E-08 8.55201E+04
 -1        15-4.46804E+04-4.78761E+04-1.09112E+06 1.63197E-10-4.68708E-09-1.04046E+04
 -1        16-2.83416E+04-2.60694E+04-1.02717E+06-4.58635E+03-3.15954E+04-1.02671E+04
 -1        17-4.47263E+05-4.47263E+05-1.04365E+06-1.74794E-11 8.55201E+04-7.17466E-09
 -1        18 1.49978E+04 1.49978E+04-9.52748E+05 7.39320E-11-9.25229E-09 5.20868E-09
 -1        19-4.78761E+04-4.46804E+04-1.09112E+06 3.09115E-10-1.04046E+04 1.65437E-09
 -1        20 2.01678E+04 1.95856E+04-9.45213E+05 2.84854E-09 3.30296E+04-1.08557E-08
 -1        21 3.22065E+02-2.35520E+03-1.00016E+06-7.02158E-10-1.57704E-09 1.35313E+03
 -1        22 2.67631E+03 2.67631E+03-9.96163E+05-1.86224E+03 5.61349E+02 5.61349E+02
 -1        23-6.17395E+02-6.17395E+02-1.00148E+06-2.10274E-10-8.97873E-09 5.22147E-09
 -1        24-2.35520E+03 3.22065E+02-1.00016E+06 1.49323E-09 1.35313E+03-4.83465E-09
 -1        25 3.65112E+03 4.66845E+03-9.92627E+05 1.12988E-09 3.66094E-09-1.93415E+03
 -1        26 1.16909E+03-3.68736E+02-9.99688E+05-1.09731E+03-2.90452E+02 1.01851E+03
 -1        27 4.42134E+02 4.42134E+02-9.98524E+05 1.47119E+03-7.90574E+02-7.90574E+02
 -1        28-6.71429E+02-1.81086E+03-1.00233E+06 3.28704E-10-5.88921E-09-1.15817E+02
 -1        29-3.68736E+02 1.16909E+03-9.99688E+05-1.09731E+03 1.01851E+03-2.90452E+02
 -1        30 3.06899E+03 3.06899E+03-9.88604E+05-4.45457E-11-6.51676E-09 4.18345E-09
 -1        31-1.81086E+03-6.71429E+02-1.00233E+06 4.89017E-10-1.15817E+02-4.05464E-10
 -1        32 4.66845E+03 3.65112E+03-9.92627E+05-4.46420E-10-1.93415E+03-7.17387E-09
 -1        33-5.33553E+01 1.87425E+02-1.00039E+06-4.76902E-10-4.54904E-10-2.63557E+02
 -1        34-7.64152E+02-7.64152E+02-1.00021E+06 1.43116E+02-4.08929E+02-4.08929E+02
 -1        35 2.61326E+02 2.61326E+02-1.00010E+06-2.99058E-10-7.25507E-09-2.42416E-10
 -1        36 1.87425E+02-5.33553E+01-1.00039E+06-1.19657E-09-2.63557E+02-8.61785E-09
 -1        37-8.45005E+02-1.35408E+03-1.00129E+06-2.67548E-10 7.54596E-10 5.79340E+02
 -1        38-3.99093E+02-2.07424E+02-1.00013E+06-7.00679E+00 6.63137E+00-3.54345E+02
 -1        39 1.05952E+02 1.05952E+02-1.00126E+06-1.50409E+02 6.00800E+02 6.00800E+02
 -1        40 1.89871E+02 2.38983E+02-1.00006E+06-9.14731E-10-2.71939E-09 1.85330E+01
 -1        41-2.07424E+02-3.99093E+02-1.00013E+06-7.00679E+00-3.54345E+02 6.63137E+00
 -1        42-1.26637E+03-1.26637E+03-1.00134E+06-7.78653E-10-5.10067E-09 2.04977E-09
 -1        43 2.38983E+02 1.89871E+02-1.00006E+06-7.33586E-10 1.85330E+01-2.16613E-09
 -1        44-1.35408E+03-8.45005E+02-1.00129E+06-4.70678E-10 5.79340E+02-8.85552E-09
 -1        45-3.01751E+01-1.24473E+02-9.99942E+05-1.68788E-10-1.87097E-09 7.00388E+01
 -1        46 1.77646E+02 1.77646E+02-9.99871E+05-8.52480E+01 7.75666E+01 7.75666E+01
 -1        47 2.48221E+00 2.48221E+00-9.99828E+05 5.43003E-10-1.67848E-08 3.64622E-09
 -1        48-1.24473E+02-3.01751E+01-9.99942E+05 6.89166E-10 7.00388E+01-1.88712E-08
 -1        49 2.55954E+02 3.90877E+02-9.99659E+05-3.92539E-11-4.61682E-10-1.60969E+02
 -1        50 7.96512E+01 9.93577E+00-1.00006E+06-2.73902E+01-5.06267E+00 8.10487E+01
 -1        51-2.33193E+01-2.33193E+01-9.99806E+05 9.06160E+01-1.16084E+02-1.16084E+02
 -1        52-2.91400E+01-5.37228E+01-1.00003E+06 2.67733E-10-8.97207E-09-8.83291E+00
 -1        53 9.93577E+00 7.96512E+01-1.00006E+06-2.73902E+01 8.10487E+01-5.06267E+00
 -1        54 2.44229E+02 2.44229E+02-9.99826E+05 6.98092E-10-8.28329E-09 9.30790E-10
 -1        55-5.37228E+01-2.91400E+01-1.00003E+06 1.06315E-09-8.83291E+00-2.24998E-09
 -1        56 3.90877E+02 2.55954E+02-9.99659E+05 1.36855E-09-1.60969E+02-1.40154E-08
 -1        57 9.35544E+00 3.11384E+01-9.99971E+05-1.05487E-09-3.86544E-09-1.54864E+01
 -1        58-4.74670E+01-4.74670E+01-9.99977E+05 2.32539E+01-2.03042E+01-2.03042E+01
 -1        59 8.26114E+00 8.26114E+00-9.99979E+05 6.12171E-10-1.94612E-09 2.77269E-09
 -1        60 3.11384E+01 9.35544E+00-9.99971E+05 6.75403E-10-1.54864E+01-6.21441E-09
 -1        61-6.53579E+01-9.79120E+01-1.00014E+06-3.68699E-09 3.38868E-09 3.82080E+01
 -1        62-2.31899E+01-5.40392E+00-1.00005E+06 6.10786E+00 1.10479E+00-2.01053E+01
 -1        63 1.28319E+01 1.28319E+01-1.00011E+06-2.72939E+01 3.00268E+01 3.00268E+01
 -1        64 1.13117E+01 1.53087E+01-1.00005E+06 1.41623E-10-4.49070E-09 1.43550E+00
 -1        65-5.40392E+00-2.31899E+01-1.00005E+06 6.10786E+00-2.01053E+01 1.10479E+00
 -1        66-6.64793E+01-6.64793E+01-1.00012E+06-1.21296E-09-8.89886E-09 1.33710E-09
 -1        67 1.53087E+01 1.13117E+01-1.00005E+06-2.78331E-10 1.43550E+00 6.95576E-10
 -1        68-9.79120E+01-6.53579E+01-1.00014E+06-1.24100E-09 3.82080E+01-1.05359E-08
 -1        69-4.19696E+00-9.91844E+00-9.99959E+05 3.72605E-09 1.70874E-08 3.38969E+00
 -1        70 1.26579E+01 1.26579E+01-9.99955E+05-6.93570E+00 4.80103E+00 4.80103E+00
 -1        71-1.97772E+00-1.97772E+00-9.99955E+05 3.12567E-09-2.36571E-09-1.36252E-09
 -1        72-9.91844E+00-4.19696E+00-9.99959E+05 1.46406E-09 3.38969E+00-1.96714E-08
 -1        73 1.81398E+01 2.64709E+01-1.00003E+06-1.14143E-09 1.06779E-08-9.61061E+00
 -1        74 5.87437E+00 9.84865E-01-1.00005E+06-1.85925E+00-2.49680E-01 4.76765E+00
 -1        75-4.90920E+00-4.90920E+00-1.00004E+06 8.45961E+00-6.95014E+00-6.95014E+00
 -1        76-3.35221E+00-4.18418E+00-1.00005E+06 3.96485E-09 7.94889E-09-4.64220E-01
 -1        77 9.84865E-01 5.87437E+00-1.00005E+06-1.85925E+00 4.76765E+00-2.49680E-01
 -1        78 1.60530E+01 1.60530E+01-1.00004E+06 8.57684E-10-1.35037E-09-1.62343E-09
 -1        79-4.18418E+00-3.35221E+00-1.00005E+06 2.98530E-09-4.64220E-01-9.60676E-12
 -1        80 2.64709E+01 1.81398E+01-1.00003E+06 5.67976E-10-9.61061E+00-6.26672E-09
 -1        81 1.40492E+00 2.88873E+00-9.99960E+05-2.00394E-09-8.10713E-09-7.38341E-01
 -1        82-3.37779E+00-3.37779E+00-9.99961E+05 1.97868E+00-1.16334E+00-1.16334E+00
 -1        83 6.19815E-01 6.19815E-01-9.99961E+05-1.07136E-09-2.02662E-09 9.43865E-09
 -1        84 2.88873E+00 1.40492E+00-9.99960E+05 3.22650E-09-7.38341E-01-9.84487E-09
 -1        85-4.87659E+00-7.01547E+00-1.00006E+06 8.51714E-10 9.96850E-09 2.37969E+00
 -1        86-1.55339E+00-2.27960E-01-1.00005E+06 5.23055E-01 6.01086E-02-1.14662E+00
 -1        87 1.70119E+00 1.70119E+00-1.00005E+06-2.49858E+00 1.64649E+00 1.64649E+00
 -1        88 9.89457E-01 1.14784E+00-1.00005E+06-2.56919E-09-5.20581E-09 1.12556E-01
 -1        89-2.27960E-01-1.55339E+00-1.00005E+06 5.23055E-01-1.14662E+00 6.01086E-02
 -1        90-3.98856E+00-3.98856E+00-1.00005E+06 1.49628E-09 3.39152E-10 7.09111E-09
 -1        91 1.14784E+00 9.89457E-01-1.00005E+06 6.00750E-10 1.12556E-01-3.41137E-09
 -1        92-7.01547E+00-4.87659E+00-1.00006E+06 2.57310E-10 2.37969E+00-1.38196E-08
 -1        93-4.58668E-01-8.50569E-01-9.99960E+05-1.34782E-09-4.42739E-10 1.56466E-01
 -1        94 9.19527E-01 9.19527E-01-9.99960E+05-5.57775E-01 2.82156E-01 2.82156E-01
 -1        95-1.77909E-01-1.77909E-01-9.99960E+05-3.05010E-10 3.96965E-09-1.12965E-08
 -1        96-8.50569E-01-4.58668E-01-9.99960E+05-1.26653E-09 1.56466E-01-1.79503E-08
 -1        97 1.32051E+00 1.87433E+00-1.00005E+06-8.31666E-11 1.09829E-09-5.91336E-01
 -1        98 4.12321E-01 5.08275E-02-1.00005E+06-1.46923E-01-1.33983E-02 2.74803E-01
 -1        99-5.63771E-01-5.63771E-01-1.00005E+06 7.18315E-01-3.82453E-01-3.82453E-01
 -1       100-2.89320E-01-3.19728E-01-1.00005E+06-4.96510E-10 1.83950E-09-2.93680E-02
 -1       101 5.08275E-02 4.12321E-01-1.00005E+06-1.46923E-01 2.74803E-01-1.33983E-02
 -1       102 9.81148E-01 9.81148E-01-1.00005E+06 1.61802E-09-4.16321E-10-3.19707E-10
 -1       103-3.19728E-01-2.89320E-01-1.00005E+06-7.74268E-10-2.93680E-02-1.63525E-08
 -1       104 1.87433E+00 1.32051E+00-1.00005E+06 5.70660E-10-5.91336E-01-1.50269E-08
 -1       105 1.54533E-01 2.66516E-01-9.99960E+05 6.95164E-10-1.51730E-08-3.52085E-02
 -1       106-2.64322E-01-2.64322E-01-9.99960E+05 1.65091E-01-7.11829E-02-7.11829E-02
 -1       107 5.54889E-02 5.54889E-02-9.99960E+05-3.72415E-09-8.00540E-10 1.48161E-08
 -1       108 2.66516E-01 1.54533E-01-9.99960E+05-3.16957E-10-3.52085E-02-5.55175E-09
 -1       109-3.53673E-01-4.96255E-01-1.00005E+06-1.52375E-09-3.51578E-09 1.46683E-01
 -1       110-1.17033E-01-1.18348E-02-1.00005E+06 4.38261E-02 3.09286E-03-6.71634E-02
 -1       111 1.72193E-01 1.72193E-01-1.00005E+06-1.98966E-01 8.56563E-02 8.56563E-02
 -1       112 8.85574E-02 9.53428E-02-1.00005E+06 1.21466E-09-7.44124E-09 7.80443E-03
 -1       113-1.18348E-02-1.17033E-01-1.00005E+06 4.38261E-02-6.71634E-02 3.09287E-03
 -1       114-2.40055E-01-2.40055E-01-1.00005E+06-4.06711E-09 1.09383E-09 2.08271E-09
 -1       115 9.53428E-02 8.85574E-02-1.00005E+06-1.68012E-09 7.80441E-03 4.81604E-09
 -1       116-4.96255E-01-3.53673E-01-1.00005E+06-4.67978E-10 1.46683E-01-3.69188E-09
 -1       117-9.29733E-02-1.44223E-01-9.99960E+05 2.93767E-09-2.95938E-10 6.74399E-03
 -1       118 1.30643E-01 1.30643E-01-9.99960E+05-8.60627E-02 1.86868E-02 1.86868E-02
 -1       119-4.28495E-02-4.28495E-02-9.99960E+05 1.19333E-09-1.22157E-09-1.95024E-09
 -1       120-1.44223E-01-9.29733E-02-9.99960E+05 2.01800E-09 6.74400E-03-1.03774E-08
 -1       121 8.50648E-02 1.14633E-01-1.00005E+06 4.96549E-09-6.51872E-09-3.54632E-02
 -1       122 4.39493E-02-7.68555E-03-1.00005E+06-2.25144E-02-2.15107E-02 2.96118E-02
 -1       123-2.33631E-02-2.33631E-02-1.00005E+06 3.87154E-02-1.10594E-02-1.10594E-02
 -1       124-6.47711E-02-6.43857E-02-1.00005E+06 8.28890E-10 2.17852E-09-5.00480E-03
 -1       125-7.68554E-03 4.39493E-02-1.00005E+06-2.25144E-02 2.96118E-02-2.15107E-02
 -1       126 5.68573E-02 5.68573E-02-1.00005E+06 1.79906E-09-9.42769E-10 4.68522E-09
 -1       127-6.43857E-02-6.47712E-02-1.00005E+06 2.25903E-09-5.00480E-03-1.58670E-09
 -1       128 1.14633E-01 8.50648E-02-1.00005E+06 2.64578E-09-3.54632E-02-6.35794E-09
 -1       129-5.42309E+05-5.42309E+05-1.26535E+06-4.34524E-02 1.72624E+05-1.72624E+05
 -1       130-4.80472E+05-4.80472E+05-1.12107E+06-1.98099E-11 9.07647E-09-1.71113E+05
 -1       131-2.92162E+04-3.46842E+04-1.05528E+06-4.13570E-09-2.57578E-08 3.18720E+04
 -1       132-2.10120E+04-2.10120E+04-9.97527E+05 5.37522E+03-3.14077E+04 3.14077E+04
 -1       133-5.09971E+05-5.09971E+05-1.18997E+06 1.65482E-02 1.71754E+05-8.64597E+04
 -1       134-4.47263E+05-4.47263E+05-1.04365E+06-1.04308E-11 2.71709E-09-8.55201E+04
 -1       135-4.46804E+04-4.78761E+04-1.09112E+06-2.54943E-10-1.69284E-08 1.04046E+04
 -1       136-2.83416E+04-2.60694E+04-1.02717E+06 4.58635E+03-3.15954E+04 1.02671E+04
 -1       137-5.09971E+05-5.09971E+05-1.18997E+06 1.65482E-02 8.64597E+04-1.71754E+05
 -1       138 1.95856E+04 2.01678E+04-9.45213E+05 6.16637E-09-1.17971E-08-3.30296E+04
 -1       139-2.60694E+04-2.83416E+04-1.02717E+06 4.58635E+03-1.02671E+04 3.15954E+04
 -1       140 1.72228E+04 1.72228E+04-9.42477E+05-6.28515E+02 3.17232E+04-3.17232E+04
 -1       141 3.22065E+02-2.35520E+03-1.00016E+06 1.14790E-09-2.44903E-08-1.35313E+03
 -1       142 2.67631E+03 2.67631E+03-9.96163E+05 1.86224E+03 5.61349E+02-5.61349E+02
 -1       143-6.71429E+02-1.81086E+03-1.00233E+06-6.84324E-11-1.53324E-08 1.15817E+02
 -1       144-3.68736E+02 1.16909E+03-9.99688E+05 1.09731E+03 1.01851E+03 2.90452E+02
 -1       145 3.65112E+03 4.66845E+03-9.92627E+05-1.34249E-09-2.20441E-08 1.93415E+03
 -1       146 1.16909E+03-3.68736E+02-9.99688E+05 1.09731E+03-2.90452E+02-1.01851E+03
 -1       147 4.42134E+02 4.42134E+02-9.98524E+05-1.47119E+03-7.90574E+02 7.90574E+02
 -1       148-5.33553E+01 1.87425E+02-1.00039E+06-2.04087E-09-1.94762E-08 2.63557E+02
 -1       149-7.64152E+02-7.64152E+02-1.00021E+06-1.43116E+02-4.08929E+02 4.08929E+02
 -1       150 1.89871E+02 2.38983E+02-1.00006E+06-6.29438E-10-1.24260E-08-1.85330E+01
 -1       151-2.07424E+02-3.99093E+02-1.00013E+06 7.00679E+00-3.54345E+02-6.63137E+00
 -1       152-8.45005E+02-1.35408E+03-1.00129E+06-8.03027E-10-1.89806E-08-5.79340E+02
 -1       153-3.99093E+02-2.07424E+02-1.00013E+06 7.00679E+00 6.63137E+00 3.54345E+02
 -1       154 1.05952E+02 1.05952E+02-1.00126E+06 1.50409E+02 6.00800E+02-6.00800E+02
 -1       155-3.01751E+01-1.24473E+02-9.99942E+05-1.65319E-09-2.93608E-08-7.00388E+01
 -1       156 1.77646E+02 1.77646E+02-9.99871E+05 8.52480E+01 7.75666E+01-7.75666E+01
 -1       157-2.91400E+01-5.37228E+01-1.00003E+06-8.48546E-10-1.85004E-08 8.83291E+00
 -1       158 9.93577E+00 7.96512E+01-1.00006E+06 2.73902E+01 8.10487E+01 5.06267E+00
 -1       159 2.55954E+02 3.90877E+02-9.99659E+05-7.58089E-10-2.53975E-08 1.60969E+02
 -1       160 7.96512E+01 9.93577E+00-1.00006E+06 2.73902E+01-5.06267E+00-8.10487E+01
 -1       161-2.33193E+01-2.33193E+01-9.99806E+05-9.06160E+01-1.16084E+02 1.16084E+02
 -1       162 9.35544E+00 3.11384E+01-9.99971E+05 2.57546E-09-2.44921E-08 1.54864E+01
 -1       163-4.74670E+01-4.74670E+01-9.99977E+05-2.32539E+01-2.03042E+01 2.03042E+01
 -1       164 1.13117E+01 1.53087E+01-1.00005E+06 1.40218E-09-1.33343E-08-1.43550E+00
 -1       165-5.40392E+00-2.31899E+01-1.00005E+06-6.10786E+00-2.01053E+01-1.10479E+00
 -1       166-6.53579E+01-9.79120E+01-1.00014E+06 4.44830E-10-2.78572E-08-3.82080E+01
 -1       167-2.31899E+01-5.40392E+00-1.00005E+06-6.10786E+00 1.10479E+00 2.01053E+01
 -1       168 1.28319E+01 1.28319E+01-1.00011E+06 2.72939E+01 3.00268E+01-3.00268E+01
 -1       169-4.19696E+00-9.91844E+00-9.99959E+05 1.99391E-10-1.74603E-08-3.38969E+00
 -1       170 1.26579E+01 1.26579E+01-9.99955E+05 6.93570E+00 4.80103E+00-4.80103E+00
 -1       171-3.35221E+00-4.18418E+00-1.00005E+06 9.88417E-10-1.02207E-08 4.64220E-01
 -1       172 9.84865E-01 5.87437E+00-1.00005E+06 1.85925E+00 4.76765E+00 2.49680E-01
 -1       173 1.81398E+01 2.64709E+01-1.00003E+06 1.30231E-09-2.00501E-08 9.61061E+00
 -1       174 5.87437E+00 9.84865E-01-1.00005E+06 1.85925E+00-2.49680E-01-4.76765E+00
 -1       175-4.90920E+00-4.90920E+00-1.00004E+06-8.45961E+00-6.95014E+00 6.95014E+00
 -1       176 1.40492E+00 2.88873E+00-9.99960E+05 6.35393E-10-2.99527E-08 7.38341E-01
 -1       177-3.37779E+00-3.37779E+00-9.99961E+05-1.97868E+00-1.16334E+00 1.16334E+00
 -1       178 9.89457E-01 1.14784E+00-1.00005E+06 9.26687E-10-1.21008E-08-1.12556E-01
 -1       179-2.27960E-01-1.55339E+00-1.00005E+06-5.23055E-01-1.14662E+00-6.01087E-02
 -1       180-4.87659E+00-7.01547E+00-1.00006E+06 1.04468E-09-1.73069E-08-2.37969E+00
 -1       181-1.55339E+00-2.27960E-01-1.00005E+06-5.23055E-01 6.01086E-02 1.14662E+00
 -1       182 1.70119E+00 1.70119E+00-1.00005E+06 2.49858E+00 1.64649E+00-1.64649E+00
 -1       183-4.58668E-01-8.50569E-01-9.99960E+05-1.81882E-09-2.46426E-08-1.56466E-01
 -1       184 9.19527E-01 9.19527E-01-9.99960E+05 5.57775E-01 2.82156E-01-2.82156E-01
 -1       185-2.89320E-01-3.19728E-01-1.00005E+06-1.49260E-09-6.91194E-09 2.93680E-02
 -1       186 5.08275E-02 4.12321E-01-1.00005E+06 1.46923E-01 2.74803E-01 1.33983E-02
 -1       187 1.32051E+00 1.87433E+00-1.00005E+06 2.12204E-09-2.23199E-08 5.91336E-01
 -1       188 4.12321E-01 5.08275E-02-1.00005E+06 1.46923E-01-1.33983E-02-2.74803E-01
 -1       189-5.63771E-01-5.63771E-01-1.00005E+06-7.18315E-01-3.82453E-01 3.82453E-01
 -1       190 1.54533E-01 2.66516E-01-9.99960E+05 3.06054E-09-1.42668E-08 3.52085E-02
 -1       191-2.64322E-01-2.64322E-01-9.99960E+05-1.65091E-01-7.11829E-02 7.11829E-02
 -1       192 8.85574E-02 9.53428E-02-1.00005E+06-3.00839E-09-5.60111E-09-7.80443E-03
 -1       193-1.18348E-02-1.17033E-01-1.00005E+06-4.38261E-02-6.71634E-02-3.09289E-03
 -1       194-3.53673E-01-4.96255E-01-1.00005E+06-2.24849E-10-2.37681E-08-1.46683E-01
 -1       195-1.17033E-01-1.18348E-02-1.00005E+06-4.38261E-02 3.09287E-03 6.71634E-02
 -1       196 1.72193E-01 1.72193E-01-1.00005E+06 1.98966E-01 8.56563E-02-8.56563E-02
 -1       197-9.29733E-02-1.44223E-01-9.99960E+05-1.94158E-09-8.93776E-09-6.74397E-03
 -1       198 1.30643E-01 1.30643E-01-9.99960E+05 8.60627E-02 1.86867E-02-1.86868E-02
 -1       199-6.47711E-02-6.43857E-02-1.00005E+06 2.07753E-09-2.69276E-09 5.00481E-03
 -1       200-7.68556E-03 4.39493E-02-1.00005E+06 2.25143E-02 2.96118E-02 2.15107E-02
 -1       201 8.50648E-02 1.14633E-01-1.00005E+06 2.46784E-09-9.36754E-09 3.54632E-02
 -1       202 4.39493E-02-7.68555E-03-1.00005E+06 2.25143E-02-2.15106E-02-2.96118E-02
 -1       203-2.33631E-02-2.33630E-02-1.00005E+06-3.87154E-02-1.10594E-02 1.10594E-02
 -1       204-5.42309E+05-5.42309E+05-1.26535E+06-4.34524E-02-1.72624E+05 1.72624E+05
 -1       205-2.10120E+04-2.10120E+04-9.97527E+05 5.37522E+03 3.14077E+04-3.14077E+04
 -1       206-4.80472E+05-4.80472E+05-1.12107E+06-5.50813E-11-1.71113E+05-5.06873E-10
 -1       207-3.46842E+04-2.92162E+04-1.05528E+06 5.66388E-10 3.18720E+04 2.16041E-08
 -1       208-5.09971E+05-5.09971E+05-1.18997E+06 1.65482E-02-8.64597E+04 1.71754E+05
 -1       209 1.72228E+04 1.72228E+04-9.42477E+05-6.28515E+02-3.17232E+04 3.17232E+04
 -1       210-2.60694E+04-2.83416E+04-1.02717E+06 4.58635E+03 1.02671E+04-3.15954E+04
 -1       211-5.09971E+05-5.09971E+05-1.18997E+06 1.65482E-02-1.71754E+05 8.64597E+04
 -1       212-2.83416E+04-2.60694E+04-1.02717E+06 4.58635E+03 3.15954E+04-1.02671E+04
 -1       213-4.47263E+05-4.47263E+05-1.04365E+06-5.68434E-12-8.55201E+04 9.33198E-10
 -1       214 2.01678E+04 1.95856E+04-9.45213E+05-3.90827E-09-3.30296E+04 1.21981E-08
 -1       215-4.78761E+04-4.46804E+04-1.09112E+06-4.69413E-10 1.04046E+04 1.23200E-08
 -1       216 2.67631E+03 2.67631E+03-9.96163E+05 1.86224E+03-5.61349E+02 5.61349E+02
 -1       217-2.35520E+03 3.22065E+02-1.00016E+06-6.07898E-10-1.35313E+03 1.85005E-08
 -1       218 4.42134E+02 4.42134E+02-9.98524E+05-1.47119E+03 7.90574E+02-7.90574E+02
 -1       219 1.16909E+03-3.68736E+02-9.99688E+05 1.09731E+03 2.90452E+02 1.01851E+03
 -1       220-3.68736E+02 1.16909E+03-9.99688E+05 1.09731E+03-1.01851E+03-2.90452E+02
 -1       221 4.66845E+03 3.65112E+03-9.92627E+05 4.45596E-10 1.93415E+03 1.74762E-08
 -1       222-1.81086E+03-6.71429E+02-1.00233E+06-4.15447E-10 1.15817E+02 9.10035E-09
 -1       223-7.64152E+02-7.64152E+02-1.00021E+06-1.43116E+02 4.08929E+02-4.08929E+02
 -1       224 1.87425E+02-5.33553E+01-1.00039E+06 1.47367E-09 2.63557E+02 1.50530E-08
 -1       225 1.05952E+02 1.05952E+02-1.00126E+06 1.50409E+02-6.00800E+02 6.00800E+02
 -1       226-3.99093E+02-2.07424E+02-1.00013E+06 7.00679E+00-6.63137E+00-3.54345E+02
 -1       227-2.07424E+02-3.99093E+02-1.00013E+06 7.00679E+00 3.54345E+02 6.63137E+00
 -1       228-1.35408E+03-8.45005E+02-1.00129E+06 2.49770E-10-5.79340E+02 1.79548E-08
 -1       229 2.38983E+02 1.89871E+02-1.00006E+06 6.47653E-10-1.85330E+01 6.39056E-09
 -1       230 1.77646E+02 1.77646E+02-9.99871E+05 8.52480E+01-7.75666E+01 7.75666E+01
 -1       231-1.24473E+02-3.01751E+01-9.99942E+05 2.08839E-09-7.00388E+01 2.01351E-08
 -1       232-2.33193E+01-2.33193E+01-9.99806E+05-9.06160E+01 1.16084E+02-1.16084E+02
 -1       233 7.96512E+01 9.93577E+00-1.00006E+06 2.73902E+01 5.06267E+00 8.10487E+01
 -1       234 9.93577E+00 7.96512E+01-1.00006E+06 2.73902E+01-8.10487E+01-5.06267E+00
 -1       235 3.90877E+02 2.55954E+02-9.99659E+05 1.06027E-10 1.60969E+02 1.69632E-08
 -1       236-5.37228E+01-2.91400E+01-1.00003E+06 8.50622E-10 8.83291E+00 1.07663E-08
 -1       237-4.74670E+01-4.74670E+01-9.99977E+05-2.32539E+01 2.03042E+01-2.03042E+01
 -1       238 3.11384E+01 9.35544E+00-9.99971E+05 9.33595E-10 1.54864E+01 3.23866E-08
 -1       239 1.28319E+01 1.28319E+01-1.00011E+06 2.72939E+01-3.00268E+01 3.00268E+01
 -1       240-2.31899E+01-5.40392E+00-1.00005E+06-6.10786E+00-1.10479E+00-2.01053E+01
 -1       241-5.40392E+00-2.31899E+01-1.00005E+06-6.10786E+00 2.01053E+01 1.10479E+00
 -1       242-9.79120E+01-6.53579E+01-1.00014E+06 2.83274E-10-3.82080E+01 2.82425E-08
 -1       243 1.53087E+01 1.13117E+01-1.00005E+06 1.58267E-09-1.43550E+00 1.66417E-08
 -1       244 1.26579E+01 1.26579E+01-9.99955E+05 6.93570E+00-4.80103E+00 4.80103E+00
 -1       245-9.91844E+00-4.19696E+00-9.99959E+05 4.54421E-11-3.38969E+00 1.73582E-08
 -1       246-4.90920E+00-4.90920E+00-1.00004E+06-8.45961E+00 6.95014E+00-6.95014E+00
 -1       247 5.87437E+00 9.84865E-01-1.00005E+06 1.85925E+00 2.49680E-01 4.76765E+00
 -1       248 9.84865E-01 5.87437E+00-1.00005E+06 1.85925E+00-4.76765E+00-2.49680E-01
 -1       249 2.64709E+01 1.81398E+01-1.00003E+06-1.00765E-09 9.61061E+00 2.61663E-08
 -1       250-4.18418E+00-3.35221E+00-1.00005E+06 1.24209E-09 4.64220E-01 7.85912E-09
 -1       251-3.37779E+00-3.37779E+00-9.99961E+05-1.97868E+00 1.16334E+00-1.16334E+00
 -1       252 2.88873E+00 1.40492E+00-9.99960E+05-2.66109E-09 7.38341E-01 1.68778E-08
 -1       253 1.70119E+00 1.70119E+00-1.00005E+06 2.49858E+00-1.64649E+00 1.64649E+00
 -1       254-1.55339E+00-2.27960E-01-1.00005E+06-5.23055E-01-6.01086E-02-1.14662E+00
 -1       255-2.27960E-01-1.55339E+00-1.00005E+06-5.23055E-01 1.14662E+00 6.01087E-02
 -1       256-7.01547E+00-4.87659E+00-1.00006E+06 2.61630E-10-2.37969E+00 1.44537E-08
 -1       257 1.14784E+00 9.89457E-01-1.00005E+06-1.36005E-09-1.12556E-01 1.15860E-08
 -1       258 9.19527E-01 9.19527E-01-9.99960E+05 5.57775E-01-2.82156E-01 2.82156E-01
 -1       259-8.50569E-01-4.58668E-01-9.99960E+05 1.28272E-09-1.56466E-01 1.61161E-08
 -1       260-5.63771E-01-5.63771E-01-1.00005E+06-7.18315E-01 3.82453E-01-3.82453E-01
 -1       261 4.12321E-01 5.08275E-02-1.00005E+06 1.46923E-01 1.33983E-02 2.74803E-01
 -1       262 5.08275E-02 4.12321E-01-1.00005E+06 1.46923E-01-2.74803E-01-1.33983E-02
 -1       263 1.87433E+00 1.32051E+00-1.00005E+06 1.10367E-09 5.91336E-01 2.01520E-08
 -1       264-3.19728E-01-2.89320E-01-1.00005E+06 3.08583E-10 2.93680E-02 7.91052E-09
 -1       265-2.64322E-01-2.64322E-01-9.99960E+05-1.65091E-01 7.11829E-02-7.11829E-02
 -1       266 2.66516E-01 1.54533E-01-9.99960E+05 5.15968E-10 3.52085E-02-1.77057E-09
 -1       267 1.72193E-01 1.72193E-01-1.00005E+06 1.98966E-01-8.56563E-02 8.56563E-02
 -1       268-1.17033E-01-1.18348E-02-1.00005E+06-4.38261E-02-3.09287E-03-6.71634E-02
 -1       269-1.18348E-02-1.17033E-01-1.00005E+06-4.38261E-02 6.71634E-02 3.09289E-03
 -1       270-4.96255E-01-3.53673E-01-1.00005E+06-1.06285E-09-1.46683E-01 1.18029E-08
 -1       271 9.53428E-02 8.85574E-02-1.00005E+06-2.11079E-09-7.80442E-03 9.92327E-09
 -1       272 1.30643E-01 1.30643E-01-9.99960E+05 8.60627E-02-1.86867E-02 1.86868E-02
 -1       273-1.44223E-01-9.29733E-02-9.99960E+05-3.91786E-09-6.74402E-03 1.22121E-08
 -1       274-2.33631E-02-2.33631E-02-1.00005E+06-3.87154E-02 1.10594E-02-1.10594E-02
 -1       275 4.39493E-02-7.68555E-03-1.00005E+06 2.25144E-02 2.15107E-02 2.96118E-02
 -1       276-7.68552E-03 4.39493E-02-1.00005E+06 2.25144E-02-2.96118E-02-2.15107E-02
 -1       277 1.14633E-01 8.50648E-02-1.00005E+06 1.04091E-10 3.54632E-02 1.36875E-08
 -1       278-6.43857E-02-6.47711E-02-1.00005E+06-1.70256E-09 5.00479E-03 1.93066E-09
 -1       279-5.42309E+05-5.42309E+05-1.26535E+06 4.34524E-02-1.72624E+05-1.72624E+05
 -1       280-2.10120E+04-2.10120E+04-9.97527E+05-5.37522E+03 3.14077E+04 3.14077E+04
 -1       281-5.09971E+05-5.09971E+05-1.18997E+06-1.65482E-02-1.71754E+05-8.64597E+04
 -1       282-2.83416E+04-2.60694E+04-1.02717E+06-4.58635E+03 3.15954E+04 1.02671E+04
 -1       283-5.09971E+05-5.09971E+05-1.18997E+06-1.65482E-02-8.64597E+04-1.71754E+05
 -1       284 1.72228E+04 1.72228E+04-9.42477E+05 6.28515E+02-3.17232E+04-3.17232E+04
 -1       285-2.60694E+04-2.83416E+04-1.02717E+06-4.58635E+03 1.02671E+04 3.15954E+04
 -1       286 2.67631E+03 2.67631E+03-9.96163E+05-1.86224E+03-5.61349E+02-5.61349E+02
 -1       287-3.68736E+02 1.16909E+03-9.99688E+05-1.09731E+03-1.01851E+03 2.90452E+02
 -1       288 4.42134E+02 4.42134E+02-9.98524E+05 1.47119E+03 7.90574E+02 7.90574E+02
 -1       289 1.16909E+03-3.68736E+02-9.99688E+05-1.09731E+03 2.90452E+02-1.01851E+03
 -1       290-7.64152E+02-7.64152E+02-1.00021E+06 1.43116E+02 4.08929E+02 4.08929E+02
 -1       291-2.07424E+02-3.99093E+02-1.00013E+06-7.00679E+00 3.54345E+02-6.63137E+00
 -1       292 1.05952E+02 1.05952E+02-1.00126E+06-1.50409E+02-6.00800E+02-6.00800E+02
 -1       293-3.99093E+02-2.07424E+02-1.00013E+06-7.00679E+00-6.63137E+00 3.54345E+02
 -1       294 1.77646E+02 1.77646E+02-9.99871E+05-8.52480E+01-7.75666E+01-7.75666E+01
 -1       295 9.93577E+00 7.96512E+01-1.00006E+06-2.73902E+01-8.10487E+01 5.06267E+00
 -1       296-2.33193E+01-2.33193E+01-9.99806E+05 9.06160E+01 1.16084E+02 1.16084E+02
 -1       297 7.96512E+01 9.93577E+00-1.00006E+06-2.73902E+01 5.06267E+00-8.10487E+01
 -1       298-4.74670E+01-4.74670E+01-9.99977E+05 2.32539E+01 2.03042E+01 2.03042E+01
 -1       299-5.40392E+00-2.31899E+01-1.00005E+06 6.10786E+00 2.01053E+01-1.10479E+00
 -1       300 1.28319E+01 1.28319E+01-1.00011E+06-2.72939E+01-3.00268E+01-3.00268E+01
 -1       301-2.31899E+01-5.40392E+00-1.00005E+06 6.10786E+00-1.10479E+00 2.01053E+01
 -1       302 1.26579E+01 1.26579E+01-9.99955E+05-6.93570E+00-4.80103E+00-4.80103E+00
 -1       303 9.84865E-01 5.87437E+00-1.00005E+06-1.85925E+00-4.76765E+00 2.49680E-01
 -1       304-4.90920E+00-4.90920E+00-1.00004E+06 8.45961E+00 6.95014E+00 6.95014E+00
 -1       305 5.87437E+00 9.84865E-01-1.00005E+06-1.85925E+00 2.49680E-01-4.76765E+00
 -1       306-3.37779E+00-3.37779E+00-9.99961E+05 1.97868E+00 1.16334E+00 1.16334E+00
 -1       307-2.27960E-01-1.55339E+00-1.00005E+06 5.23055E-01 1.14662E+00-6.01086E-02
 -1       308 1.70119E+00 1.70119E+00-1.00005E+06-2.49858E+00-1.64649E+00-1.64649E+00
 -1       309-1.55339E+00-2.27960E-01-1.00005E+06 5.23055E-01-6.01087E-02 1.14662E+00
 -1       310 9.19527E-01 9.19527E-01-9.99960E+05-5.57775E-01-2.82156E-01-2.82156E-01
 -1       311 5.08275E-02 4.12321E-01-1.00005E+06-1.46923E-01-2.74803E-01 1.33983E-02
 -1       312-5.63771E-01-5.63771E-01-1.00005E+06 7.18315E-01 3.82453E-01 3.82453E-01
 -1       313 4.12321E-01 5.08275E-02-1.00005E+06-1.46923E-01 1.33983E-02-2.74803E-01
 -1       314-2.64322E-01-2.64322E-01-9.99960E+05 1.65091E-01 7.11829E-02 7.11829E-02
 -1       315-1.18348E-02-1.17033E-01-1.00005E+06 4.38261E-02 6.71634E-02-3.09286E-03
 -1       316 1.72193E-01 1.72193E-01-1.00005E+06-1.98966E-01-8.56563E-02-8.56563E-02
 -1       317-1.17033E-01-1.18348E-02-1.00005E+06 4.38261E-02-3.09286E-03 6.71634E-02
 -1       318 1.30643E-01 1.30643E-01-9.99960E+05-8.60627E-02-1.86868E-02-1.86868E-02
 -1       319-7.68554E-03 4.39493E-02-1.00005E+06-2.25144E-02-2.96118E-02 2.15107E-02
 -1       320-2.33631E-02-2.33630E-02-1.00005E+06 3.87154E-02 1.10594E-02 1.10594E-02
 -1       321 4.39493E-02-7.68551E-03-1.00005E+06-2.25144E-02 2.15106E-02-2.96118E-02
 -3
    1PSTEP                         3           1           1          
  100CL  101 1.000000000         321                     0    1           1
 -4  TOSTRAIN    6    1
 -5  EXX         1    4    1    1
 -5  EYY         1    4    2    2
 -5  EZZ         1    4    3    3
 -5  EXY         1    4    1    2
 -5  EYZ         1    4    2    3
 -5  EZX         1    4    3    1
 -1         1-4.79239E-11-4.79239E-11-4.47604E-06 2.68991E-13 1.06862E-06 1.06862E-06
 -1         2-4.80082E-11-4.78820E-11-3.96564E-06-4.56242E-23 1.53368E-19 1.05927E-06
 -1         3 1.41796E-06 1.38411E-06-4.93384E-06 2.18971E-20 1.58984E-20-1.97303E-07
 -1         4 1.35500E-06 1.35500E-06-4.69009E-06-3.32752E-08-1.94429E-07-1.94429E-07
 -1         5-4.78820E-11-4.80082E-11-3.96564E-06-4.51072E-23 1.05927E-06-1.02211E-19
 -1         6-4.80903E-11-4.80903E-11-3.44063E-06-1.50831E-22 1.80263E-21 3.98463E-21
 -1         7 1.41057E-06 1.41057E-06-5.19010E-06 1.25002E-21-5.29429E-20 3.17108E-20
 -1         8 1.38411E-06 1.41796E-06-4.93384E-06-9.36203E-21-1.97303E-07-4.84827E-20
 -1         9 5.32468E-11 5.33197E-11-4.20946E-06-1.02441E-13 5.35227E-07 1.06324E-06
 -1        10 1.41476E-06 1.41836E-06-4.55781E-06-3.67504E-20 7.13427E-20 2.04469E-07
 -1        11 1.38374E-06 1.36967E-06-4.81356E-06-2.83917E-08-6.35582E-08-1.95591E-07
 -1        12 1.40381E-06 1.40381E-06-4.53720E-06 3.89081E-09 1.96382E-07 1.96382E-07
 -1        13 5.33197E-11 5.32468E-11-4.20946E-06-1.02441E-13 1.06324E-06 5.35227E-07
 -1        14 5.31733E-11 5.32267E-11-3.69187E-06 9.99855E-23 6.62768E-20 5.29410E-07
 -1        15 1.41438E-06 1.39460E-06-5.06360E-06 1.01123E-21-2.89943E-20-6.44095E-08
 -1        16 1.36967E-06 1.38374E-06-4.81356E-06-2.83917E-08-1.95591E-07-6.35582E-08
 -1        17 5.32267E-11 5.31733E-11-3.69187E-06-1.08774E-22 5.29410E-07-4.44190E-20
 -1        18 1.41106E-06 1.41106E-06-4.57975E-06 4.58129E-22-5.73137E-20 3.22733E-20
 -1        19 1.39460E-06 1.41438E-06-5.06360E-06 1.91492E-21-6.44095E-08 1.02637E-20
 -1        20 1.41836E-06 1.41476E-06-4.55781E-06 1.76351E-20 2.04469E-07-6.72266E-20
 -1        21 1.43370E-06 1.41713E-06-4.75978E-06-4.34691E-21-9.76404E-21 8.37653E-09
 -1        22 1.43201E-06 1.43201E-06-4.75128E-06-1.15281E-08 3.47502E-09 3.47502E-09
 -1        23 1.42863E-06 1.42863E-06-4.76719E-06-1.30164E-21-5.55822E-20 3.23233E-20
 -1        24 1.41713E-06 1.43370E-06-4.75978E-06 9.24403E-21 8.37653E-09-2.99284E-20
 -1        25 1.42876E-06 1.43505E-06-4.73868E-06 6.99443E-21 2.26664E-20-1.19733E-08
 -1        26 1.43422E-06 1.42470E-06-4.76156E-06-6.79285E-09-1.79803E-09 6.30508E-09
 -1        27 1.42794E-06 1.42794E-06-4.75614E-06 9.10739E-09-4.89403E-09-4.89403E-09
 -1        28 1.43130E-06 1.42424E-06-4.76947E-06 2.03497E-21-3.64576E-20-7.16960E-10
 -1        29 1.42470E-06 1.43422E-06-4.76156E-06-6.79285E-09 6.30508E-09-1.79803E-09
 -1        30 1.42252E-06 1.42252E-06-4.71640E-06-2.75131E-22-4.03490E-20 2.59007E-20
 -1        31 1.42424E-06 1.43130E-06-4.76947E-06 3.02707E-21-7.16960E-10-2.50843E-21
 -1        32 1.43505E-06 1.42876E-06-4.73868E-06-2.76185E-21-1.19733E-08-4.44097E-20
 -1        33 1.42861E-06 1.43010E-06-4.76395E-06-2.95226E-21-2.81614E-21-1.63154E-09
 -1        34 1.42633E-06 1.42633E-06-4.76074E-06 8.85956E-10-2.53147E-09-2.53147E-09
 -1        35 1.42958E-06 1.42958E-06-4.76311E-06-1.85126E-21-4.49125E-20-1.50053E-21
 -1        36 1.43010E-06 1.42861E-06-4.76395E-06-7.40720E-21-1.63154E-09-5.33483E-20
 -1        37 1.42832E-06 1.42517E-06-4.76490E-06-1.65591E-21 4.66985E-21 3.58639E-09
 -1        38 1.42716E-06 1.42834E-06-4.76167E-06-4.33754E-11 4.10513E-11-2.19356E-09
 -1        39 1.43073E-06 1.43073E-06-4.76822E-06-9.31105E-10 3.71924E-09 3.71924E-09
 -1        40 1.42922E-06 1.42953E-06-4.76281E-06-5.66265E-21-1.68346E-20 1.14728E-10
 -1        41 1.42834E-06 1.42716E-06-4.76167E-06-4.33754E-11-2.19356E-09 4.10513E-11
 -1        42 1.42627E-06 1.42627E-06-4.76469E-06-4.82025E-21-3.15762E-20 1.26899E-20
 -1        43 1.42953E-06 1.42922E-06-4.76281E-06-4.54148E-21 1.14728E-10-1.34093E-20
 -1        44 1.42517E-06 1.42832E-06-4.76490E-06-2.91385E-21 3.58639E-09-5.48189E-20
 -1        45 1.42852E-06 1.42794E-06-4.76141E-06-1.04483E-21-1.15822E-20 4.33574E-10
 -1        46 1.42898E-06 1.42898E-06-4.76180E-06-5.27726E-10 4.80174E-10 4.80174E-10
 -1        47 1.42833E-06 1.42833E-06-4.76109E-06 3.36146E-21-1.03906E-19 2.25718E-20
 -1        48 1.42794E-06 1.42852E-06-4.76141E-06 4.26624E-21 4.33574E-10-1.16822E-19
 -1        49 1.42875E-06 1.42958E-06-4.76121E-06-2.42933E-22-2.85781E-21-9.96473E-10
 -1        50 1.42902E-06 1.42859E-06-4.76231E-06-1.69558E-10-3.13404E-11 5.01730E-10
 -1        51 1.42822E-06 1.42822E-06-4.76092E-06 5.60956E-10-7.18618E-10-7.18618E-10
 -1        52 1.42856E-06 1.42840E-06-4.76195E-06 1.65742E-21-5.55414E-20-5.46799E-11
 -1        53 1.42859E-06 1.42902E-06-4.76231E-06-1.69558E-10 5.01730E-10-3.13404E-11
 -1        54 1.42914E-06 1.42914E-06-4.76177E-06 4.32152E-21-5.12775E-20 5.76217E-21
 -1        55 1.42840E-06 1.42856E-06-4.76195E-06 6.58137E-21-5.46799E-11-1.39285E-20
 -1        56 1.42958E-06 1.42875E-06-4.76121E-06 8.47188E-21-9.96473E-10-8.67621E-20
 -1        57 1.42853E-06 1.42866E-06-4.76182E-06-6.53016E-21-2.39289E-20-9.58681E-11
 -1        58 1.42838E-06 1.42838E-06-4.76166E-06 1.43953E-10-1.25693E-10-1.25693E-10
 -1        59 1.42857E-06 1.42857E-06-4.76183E-06 3.78963E-21-1.20474E-20 1.71643E-20
 -1        60 1.42866E-06 1.42853E-06-4.76182E-06 4.18106E-21-9.58681E-11-3.84702E-20
 -1        61 1.42859E-06 1.42839E-06-4.76232E-06-2.28242E-20 2.09775E-20 2.36526E-10
 -1        62 1.42854E-06 1.42865E-06-4.76211E-06 3.78106E-11 6.83915E-12-1.24461E-10
 -1        63 1.42877E-06 1.42877E-06-4.76247E-06-1.68962E-10 1.85880E-10 1.85880E-10
 -1        64 1.42868E-06 1.42870E-06-4.76219E-06 8.76713E-22-2.77996E-20 8.88646E-12
 -1        65 1.42865E-06 1.42854E-06-4.76211E-06 3.78106E-11-1.24461E-10 6.83915E-12
 -1        66 1.42852E-06 1.42852E-06-4.76228E-06-7.50878E-21-5.50882E-20 8.27729E-21
 -1        67 1.42870E-06 1.42868E-06-4.76219E-06-1.72300E-21 8.88646E-12 4.30594E-21
 -1        68 1.42839E-06 1.42859E-06-4.76232E-06-7.68236E-21 2.36526E-10-6.52221E-20
 -1        69 1.42851E-06 1.42847E-06-4.76169E-06 2.30660E-20 1.05779E-19 2.09838E-11
 -1        70 1.42855E-06 1.42855E-06-4.76173E-06-4.29353E-11 2.97207E-11 2.97207E-11
 -1        71 1.42850E-06 1.42850E-06-4.76168E-06 1.93494E-20-1.46449E-20-8.43464E-21
 -1        72 1.42847E-06 1.42851E-06-4.76169E-06 9.06323E-21 2.09838E-11-1.21775E-19
 -1        73 1.42866E-06 1.42871E-06-4.76210E-06-7.06603E-21 6.61012E-20-5.94943E-11
 -1        74 1.42867E-06 1.42864E-06-4.76215E-06-1.15096E-11-1.54564E-12 2.95140E-11
 -1        75 1.42861E-06 1.42861E-06-4.76207E-06 5.23690E-11-4.30247E-11-4.30247E-11
 -1        76 1.42863E-06 1.42863E-06-4.76213E-06 2.45443E-20 4.92074E-20-2.87374E-12
 -1        77 1.42864E-06 1.42867E-06-4.76215E-06-1.15096E-11 2.95140E-11-1.54564E-12
 -1        78 1.42867E-06 1.42867E-06-4.76212E-06 5.30947E-21-8.35942E-21-1.00498E-20
 -1        79 1.42863E-06 1.42863E-06-4.76213E-06 1.84804E-20-2.87374E-12-5.94706E-23
 -1        80 1.42871E-06 1.42866E-06-4.76210E-06 3.51604E-21-5.94943E-11-3.87940E-20
 -1        81 1.42852E-06 1.42853E-06-4.76172E-06-1.24053E-20-5.01870E-20-4.57068E-12
 -1        82 1.42850E-06 1.42850E-06-4.76171E-06 1.22490E-11-7.20163E-12-7.20163E-12
 -1        83 1.42852E-06 1.42852E-06-4.76172E-06-6.63225E-21-1.25458E-20 5.84297E-20
 -1        84 1.42853E-06 1.42852E-06-4.76172E-06 1.99736E-20-4.57068E-12-6.09444E-20
 -1        85 1.42864E-06 1.42862E-06-4.76215E-06 5.27252E-21 6.17097E-20 1.47314E-11
 -1        86 1.42864E-06 1.42864E-06-4.76214E-06 3.23796E-12 3.72101E-13-7.09809E-12
 -1        87 1.42865E-06 1.42865E-06-4.76216E-06-1.54674E-11 1.01925E-11 1.01925E-11
 -1        88 1.42865E-06 1.42865E-06-4.76215E-06-1.59045E-20-3.22265E-20 6.96776E-13
 -1        89 1.42864E-06 1.42864E-06-4.76214E-06 3.23796E-12-7.09809E-12 3.72101E-13
 -1        90 1.42863E-06 1.42863E-06-4.76215E-06 9.26270E-21 2.09952E-21 4.38973E-20
 -1        91 1.42865E-06 1.42865E-06-4.76215E-06 3.71893E-21 6.96776E-13-2.11180E-20
 -1        92 1.42862E-06 1.42864E-06-4.76215E-06 1.59287E-21 1.47314E-11-8.55497E-20
 -1        93 1.42851E-06 1.42851E-06-4.76171E-06-8.34364E-21-2.74077E-21 9.68599E-13
 -1        94 1.42852E-06 1.42852E-06-4.76172E-06-3.45289E-12 1.74668E-12 1.74668E-12
 -1        95 1.42851E-06 1.42851E-06-4.76171E-06-1.88816E-21 2.45740E-20-6.99309E-20
 -1        96 1.42851E-06 1.42851E-06-4.76171E-06-7.84041E-21 9.68598E-13-1.11121E-19
 -1        97 1.42864E-06 1.42865E-06-4.76214E-06-5.14840E-22 6.79891E-21-3.66065E-12
 -1        98 1.42864E-06 1.42864E-06-4.76214E-06-9.09524E-13-8.29421E-14 1.70116E-12
 -1        99 1.42864E-06 1.42864E-06-4.76214E-06 4.44671E-12-2.36757E-12-2.36757E-12
 -1       100 1.42864E-06 1.42864E-06-4.76214E-06-3.07363E-21 1.13874E-20-1.81802E-13
 -1       101 1.42864E-06 1.42864E-06-4.76214E-06-9.09524E-13 1.70116E-12-8.29421E-14
 -1       102 1.42864E-06 1.42864E-06-4.76214E-06 1.00163E-20-2.57723E-21-1.97914E-21
 -1       103 1.42864E-06 1.42864E-06-4.76214E-06-4.79309E-21-1.81802E-13-1.01230E-19
 -1       104 1.42865E-06 1.42864E-06-4.76214E-06 3.53265E-21-3.66065E-12-9.30235E-20
 -1       105 1.42851E-06 1.42852E-06-4.76171E-06 4.30340E-21-9.39284E-20-2.17958E-13
 -1       106 1.42851E-06 1.42851E-06-4.76171E-06 1.02199E-12-4.40656E-13-4.40656E-13
 -1       107 1.42851E-06 1.42851E-06-4.76171E-06-2.30543E-20-4.95573E-21 9.17185E-20
 -1       108 1.42852E-06 1.42851E-06-4.76171E-06-1.96212E-21-2.17958E-13-3.43680E-20
 -1       109 1.42864E-06 1.42864E-06-4.76214E-06-9.43272E-21-2.17644E-20 9.08039E-13
 -1       110 1.42864E-06 1.42864E-06-4.76214E-06 2.71304E-13 1.91463E-14-4.15773E-13
 -1       111 1.42864E-06 1.42864E-06-4.76214E-06-1.23170E-12 5.30253E-13 5.30253E-13
 -1       112 1.42864E-06 1.42864E-06-4.76214E-06 7.51935E-21-4.60648E-20 4.83131E-14
 -1       113 1.42864E-06 1.42864E-06-4.76214E-06 2.71304E-13-4.15773E-13 1.91463E-14
 -1       114 1.42864E-06 1.42864E-06-4.76214E-06-2.51774E-20 6.77130E-21 1.28930E-20
 -1       115 1.42864E-06 1.42864E-06-4.76214E-06-1.04007E-20 4.83130E-14 2.98136E-20
 -1       116 1.42864E-06 1.42864E-06-4.76214E-06-2.89701E-21 9.08039E-13-2.28545E-20
 -1       117 1.42851E-06 1.42851E-06-4.76171E-06 1.81856E-20-1.83200E-21 4.17485E-14
 -1       118 1.42851E-06 1.42851E-06-4.76171E-06-5.32769E-13 1.15680E-13 1.15680E-13
 -1       119 1.42851E-06 1.42851E-06-4.76171E-06 7.38728E-21-7.56207E-21-1.20729E-20
 -1       120 1.42851E-06 1.42851E-06-4.76171E-06 1.24924E-20 4.17486E-14-6.42411E-20
 -1       121 1.42864E-06 1.42864E-06-4.76214E-06 3.07388E-20-4.03540E-20-2.19534E-13
 -1       122 1.42864E-06 1.42864E-06-4.76214E-06-1.39375E-13-1.33161E-13 1.83311E-13
 -1       123 1.42864E-06 1.42864E-06-4.76214E-06 2.39667E-13-6.84630E-14-6.84631E-14
 -1       124 1.42864E-06 1.42864E-06-4.76214E-06 5.13122E-21 1.34861E-20-3.09821E-14
 -1       125 1.42864E-06 1.42864E-06-4.76214E-06-1.39375E-13 1.83311E-13-1.33161E-13
 -1       126 1.42864E-06 1.42864E-06-4.76214E-06 1.11370E-20-5.83619E-21 2.90037E-20
 -1       127 1.42864E-06 1.42864E-06-4.76214E-06 1.39845E-20-3.09821E-14-9.82243E-21
 -1       128 1.42864E-06 1.42864E-06-4.76214E-06 1.63786E-20-2.19534E-13-3.93587E-20
 -1       129-4.79239E-11-4.79239E-11-4.47604E-06-2.68991E-13 1.06862E-06-1.06862E-06
 -1       130-4.80082E-11-4.78820E-11-3.96564E-06-1.22836E-22 5.61782E-20-1.05927E-06
 -1       131 1.41796E-06 1.38411E-06-4.93384E-06-2.56054E-20-1.59447E-19 1.97303E-07
 -1       132 1.35500E-06 1.35500E-06-4.69009E-06 3.32752E-08-1.94429E-07 1.94429E-07
 -1       133 5.33197E-11 5.32468E-11-4.20946E-06 1.02441E-13 1.06324E-06-5.35227E-07
 -1       134 5.31733E-11 5.32267E-11-3.69187E-06-6.47269E-23 1.68325E-20-5.29410E-07
 -1       135 1.41438E-06 1.39460E-06-5.06360E-06-1.57826E-21-1.04774E-19 6.44095E-08
 -1       136 1.36967E-06 1.38374E-06-4.81356E-06 2.83917E-08-1.95591E-07 6.35582E-08
 -1       137 5.32468E-11 5.33197E-11-4.20946E-06 1.02441E-13 5.35227E-07-1.06324E-06
 -1       138 1.41476E-06 1.41836E-06-4.55781E-06 3.81723E-20-7.30434E-20-2.04469E-07
 -1       139 1.38374E-06 1.36967E-06-4.81356E-06 2.83917E-08-6.35582E-08 1.95591E-07
 -1       140 1.40381E-06 1.40381E-06-4.53720E-06-3.89081E-09 1.96382E-07-1.96382E-07
 -1       141 1.43370E-06 1.41713E-06-4.75978E-06 7.10556E-21-1.51604E-19-8.37653E-09
 -1       142 1.43201E-06 1.43201E-06-4.75128E-06 1.15281E-08 3.47502E-09-3.47502E-09
 -1       143 1.43130E-06 1.42424E-06-4.76947E-06-4.23155E-22-9.49136E-20 7.16960E-10
 -1       144 1.42470E-06 1.43422E-06-4.76156E-06 6.79285E-09 6.30508E-09 1.79803E-09
 -1       145 1.42876E-06 1.43505E-06-4.73868E-06-8.30996E-21-1.36463E-19 1.19733E-08
 -1       146 1.43422E-06 1.42470E-06-4.76156E-06 6.79285E-09-1.79803E-09-6.30508E-09
 -1       147 1.42794E-06 1.42794E-06-4.75614E-06-9.10739E-09-4.89403E-09 4.89403E-09
 -1       148 1.42861E-06 1.43010E-06-4.76395E-06-1.26338E-20-1.20567E-19 1.63154E-09
 -1       149 1.42633E-06 1.42633E-06-4.76074E-06-8.85956E-10-2.53147E-09 2.53147E-09
 -1       150 1.42922E-06 1.42953E-06-4.76281E-06-3.89651E-21-7.69230E-20-1.14728E-10
 -1       151 1.42834E-06 1.42716E-06-4.76167E-06 4.33754E-11-2.19356E-09-4.10513E-11
 -1       152 1.42832E-06 1.42517E-06-4.76490E-06-4.97115E-21-1.17499E-19-3.58639E-09
 -1       153 1.42716E-06 1.42834E-06-4.76167E-06 4.33754E-11 4.10513E-11 2.19356E-09
 -1       154 1.43073E-06 1.43073E-06-4.76822E-06 9.31105E-10 3.71924E-09-3.71924E-09
 -1       155 1.42852E-06 1.42794E-06-4.76141E-06-1.02340E-20-1.81757E-19-4.33574E-10
 -1       156 1.42898E-06 1.42898E-06-4.76180E-06 5.27726E-10 4.80174E-10-4.80174E-10
 -1       157 1.42856E-06 1.42840E-06-4.76195E-06-5.25289E-21-1.14526E-19 5.46799E-11
 -1       158 1.42859E-06 1.42902E-06-4.76231E-06 1.69558E-10 5.01730E-10 3.13404E-11
 -1       159 1.42875E-06 1.42958E-06-4.76121E-06-4.69301E-21-1.57222E-19 9.96473E-10
 -1       160 1.42902E-06 1.42859E-06-4.76231E-06 1.69558E-10-3.13404E-11-5.01730E-10
 -1       161 1.42822E-06 1.42822E-06-4.76092E-06-5.60956E-10-7.18618E-10 7.18618E-10
 -1       162 1.42853E-06 1.42866E-06-4.76182E-06 1.59433E-20-1.51618E-19 9.58681E-11
 -1       163 1.42838E-06 1.42838E-06-4.76166E-06-1.43953E-10-1.25693E-10 1.25693E-10
 -1       164 1.42868E-06 1.42870E-06-4.76219E-06 8.68015E-21-8.25457E-20-8.88646E-12
 -1       165 1.42865E-06 1.42854E-06-4.76211E-06-3.78106E-11-1.24461E-10-6.83915E-12
 -1       166 1.42859E-06 1.42839E-06-4.76232E-06 2.75370E-21-1.72449E-19-2.36526E-10
 -1       167 1.42854E-06 1.42865E-06-4.76211E-06-3.78106E-11 6.83915E-12 1.24461E-10
 -1       168 1.42877E-06 1.42877E-06-4.76247E-06 1.68962E-10 1.85880E-10-1.85880E-10
 -1       169 1.42851E-06 1.42847E-06-4.76169E-06 1.23433E-21-1.08088E-19-2.09838E-11
 -1       170 1.42855E-06 1.42855E-06-4.76173E-06 4.29353E-11 2.97207E-11-2.97207E-11
 -1       171 1.42863E-06 1.42863E-06-4.76213E-06 6.11877E-21-6.32712E-20 2.87374E-12
 -1       172 1.42864E-06 1.42867E-06-4.76215E-06 1.15096E-11 2.95140E-11 1.54564E-12
 -1       173 1.42866E-06 1.42871E-06-4.76210E-06 8.06194E-21-1.24119E-19 5.94943E-11
 -1       174 1.42867E-06 1.42864E-06-4.76215E-06 1.15096E-11-1.54564E-12-2.95140E-11
 -1       175 1.42861E-06 1.42861E-06-4.76207E-06-5.23690E-11-4.30247E-11 4.30247E-11
 -1       176 1.42852E-06 1.42853E-06-4.76172E-06 3.93338E-21-1.85421E-19 4.57068E-12
 -1       177 1.42850E-06 1.42850E-06-4.76171E-06-1.22490E-11-7.20163E-12 7.20163E-12
 -1       178 1.42865E-06 1.42865E-06-4.76215E-06 5.73663E-21-7.49097E-20-6.96776E-13
 -1       179 1.42864E-06 1.42864E-06-4.76214E-06-3.23796E-12-7.09809E-12-3.72101E-13
 -1       180 1.42864E-06 1.42862E-06-4.76215E-06 6.46707E-21-1.07138E-19-1.47314E-11
 -1       181 1.42864E-06 1.42864E-06-4.76214E-06-3.23796E-12 3.72101E-13 7.09809E-12
 -1       182 1.42865E-06 1.42865E-06-4.76216E-06 1.54674E-11 1.01925E-11-1.01925E-11
 -1       183 1.42851E-06 1.42851E-06-4.76171E-06-1.12594E-20-1.52550E-19-9.68598E-13
 -1       184 1.42852E-06 1.42852E-06-4.76172E-06 3.45289E-12 1.74668E-12-1.74668E-12
 -1       185 1.42864E-06 1.42864E-06-4.76214E-06-9.23989E-21-4.27882E-20 1.81802E-13
 -1       186 1.42864E-06 1.42864E-06-4.76214E-06 9.09524E-13 1.70116E-12 8.29420E-14
 -1       187 1.42864E-06 1.42865E-06-4.76214E-06 1.31365E-20-1.38171E-19 3.66065E-12
 -1       188 1.42864E-06 1.42864E-06-4.76214E-06 9.09524E-13-8.29422E-14-1.70116E-12
 -1       189 1.42864E-06 1.42864E-06-4.76214E-06-4.44671E-12-2.36757E-12 2.36757E-12
 -1       190 1.42851E-06 1.42852E-06-4.76171E-06 1.89462E-20-8.83186E-20 2.17957E-13
 -1       191 1.42851E-06 1.42851E-06-4.76171E-06-1.02199E-12-4.40656E-13 4.40656E-13
 -1       192 1.42864E-06 1.42864E-06-4.76214E-06-1.86234E-20-3.46736E-20-4.83131E-14
 -1       193 1.42864E-06 1.42864E-06-4.76214E-06-2.71304E-13-4.15773E-13-1.91465E-14
 -1       194 1.42864E-06 1.42864E-06-4.76214E-06-1.39192E-21-1.47136E-19-9.08039E-13
 -1       195 1.42864E-06 1.42864E-06-4.76214E-06-2.71304E-13 1.91463E-14 4.15773E-13
 -1       196 1.42864E-06 1.42864E-06-4.76214E-06 1.23170E-12 5.30253E-13-5.30253E-13
 -1       197 1.42851E-06 1.42851E-06-4.76171E-06-1.20193E-20-5.53290E-20-4.17484E-14
 -1       198 1.42851E-06 1.42851E-06-4.76171E-06 5.32769E-13 1.15680E-13-1.15680E-13
 -1       199 1.42864E-06 1.42864E-06-4.76214E-06 1.28609E-20-1.66694E-20 3.09821E-14
 -1       200 1.42864E-06 1.42864E-06-4.76214E-06 1.39375E-13 1.83311E-13 1.33161E-13
 -1       201 1.42864E-06 1.42864E-06-4.76214E-06 1.52771E-20-5.79895E-20 2.19534E-13
 -1       202 1.42864E-06 1.42864E-06-4.76214E-06 1.39375E-13-1.33161E-13-1.83311E-13
 -1       203 1.42864E-06 1.42864E-06-4.76214E-06-2.39667E-13-6.84631E-14 6.84629E-14
 -1       204-4.79239E-11-4.79239E-11-4.47604E-06-2.68991E-13-1.06862E-06 1.06862E-06
 -1       205 1.35500E-06 1.35500E-06-4.69009E-06 3.32752E-08 1.94429E-07-1.94429E-07
 -1       206-4.78820E-11-4.80082E-11-3.96564E-06-3.40798E-22-1.05927E-06-3.11185E-21
 -1       207 1.38411E-06 1.41796E-06-4.93384E-06 3.50890E-21 1.97303E-07 1.33755E-19
 -1       208 5.32468E-11 5.33197E-11-4.20946E-06 1.02441E-13-5.35227E-07 1.06324E-06
 -1       209 1.40381E-06 1.40381E-06-4.53720E-06-3.89081E-09-1.96382E-07 1.96382E-07
 -1       210 1.38374E-06 1.36967E-06-4.81356E-06 2.83917E-08 6.35582E-08-1.95591E-07
 -1       211 5.33197E-11 5.32468E-11-4.20946E-06 1.02441E-13-1.06324E-06 5.35227E-07
 -1       212 1.36967E-06 1.38374E-06-4.81356E-06 2.83917E-08 1.95591E-07-6.35582E-08
 -1       213 5.32267E-11 5.31733E-11-3.69187E-06-3.57756E-23-5.29410E-07 5.72182E-21
 -1       214 1.41836E-06 1.41476E-06-4.55781E-06-2.41950E-20-2.04469E-07 7.54786E-20
 -1       215 1.39460E-06 1.41438E-06-5.06360E-06-2.90340E-21 6.44095E-08 7.62727E-20
 -1       216 1.43201E-06 1.43201E-06-4.75128E-06 1.15281E-08-3.47502E-09 3.47502E-09
 -1       217 1.41713E-06 1.43370E-06-4.75978E-06-3.76297E-21-8.37653E-09 1.14527E-19
 -1       218 1.42794E-06 1.42794E-06-4.75614E-06-9.10739E-09 4.89403E-09-4.89403E-09
 -1       219 1.43422E-06 1.42470E-06-4.76156E-06 6.79285E-09 1.79803E-09 6.30508E-09
 -1       220 1.42470E-06 1.43422E-06-4.76156E-06 6.79285E-09-6.30508E-09-1.79803E-09
 -1       221 1.43505E-06 1.42876E-06-4.73868E-06 2.75668E-21 1.19733E-08 1.08185E-19
 -1       222 1.42424E-06 1.43130E-06-4.76947E-06-2.57170E-21 7.16960E-10 5.63380E-20
 -1       223 1.42633E-06 1.42633E-06-4.76074E-06-8.85956E-10 2.53147E-09-2.53147E-09
 -1       224 1.43010E-06 1.42861E-06-4.76395E-06 9.12282E-21 1.63154E-09 9.31855E-20
 -1       225 1.43073E-06 1.43073E-06-4.76822E-06 9.31105E-10-3.71924E-09 3.71924E-09
 -1       226 1.42716E-06 1.42834E-06-4.76167E-06 4.33754E-11-4.10513E-11-2.19356E-09
 -1       227 1.42834E-06 1.42716E-06-4.76167E-06 4.33754E-11 2.19356E-09 4.10513E-11
 -1       228 1.42517E-06 1.42832E-06-4.76490E-06 1.54579E-21-3.58639E-09 1.11149E-19
 -1       229 1.42953E-06 1.42922E-06-4.76281E-06 4.00934E-21-1.14728E-10 3.95600E-20
 -1       230 1.42898E-06 1.42898E-06-4.76180E-06 5.27726E-10-4.80174E-10 4.80174E-10
 -1       231 1.42794E-06 1.42852E-06-4.76141E-06 1.29281E-20-4.33574E-10 1.24646E-19
 -1       232 1.42822E-06 1.42822E-06-4.76092E-06-5.60956E-10 7.18618E-10-7.18618E-10
 -1       233 1.42902E-06 1.42859E-06-4.76231E-06 1.69558E-10 3.13404E-11 5.01730E-10
 -1       234 1.42859E-06 1.42902E-06-4.76231E-06 1.69558E-10-5.01730E-10-3.13404E-11
 -1       235 1.42958E-06 1.42875E-06-4.76121E-06 6.56394E-22 9.96473E-10 1.05010E-19
 -1       236 1.42840E-06 1.42856E-06-4.76195E-06 5.26575E-21 5.46799E-11 6.66482E-20
 -1       237 1.42838E-06 1.42838E-06-4.76166E-06-1.43953E-10 1.25693E-10-1.25693E-10
 -1       238 1.42866E-06 1.42853E-06-4.76182E-06 5.77940E-21 9.58681E-11 2.00488E-19
 -1       239 1.42877E-06 1.42877E-06-4.76247E-06 1.68962E-10-1.85880E-10 1.85880E-10
 -1       240 1.42854E-06 1.42865E-06-4.76211E-06-3.78106E-11-6.83915E-12-1.24461E-10
 -1       241 1.42865E-06 1.42854E-06-4.76211E-06-3.78106E-11 1.24461E-10 6.83915E-12
 -1       242 1.42839E-06 1.42859E-06-4.76232E-06 1.75361E-21-2.36526E-10 1.74834E-19
 -1       243 1.42870E-06 1.42868E-06-4.76219E-06 9.79747E-21-8.88646E-12 1.03020E-19
 -1       244 1.42855E-06 1.42855E-06-4.76173E-06 4.29353E-11-2.97207E-11 2.97207E-11
 -1       245 1.42847E-06 1.42851E-06-4.76169E-06 2.81303E-22-2.09838E-11 1.07456E-19
 -1       246 1.42861E-06 1.42861E-06-4.76207E-06-5.23690E-11 4.30247E-11-4.30247E-11
 -1       247 1.42867E-06 1.42864E-06-4.76215E-06 1.15096E-11 1.54564E-12 2.95140E-11
 -1       248 1.42864E-06 1.42867E-06-4.76215E-06 1.15096E-11-2.95140E-11-1.54564E-12
 -1       249 1.42871E-06 1.42866E-06-4.76210E-06-6.23785E-21 5.94943E-11 1.61982E-19
 -1       250 1.42863E-06 1.42863E-06-4.76213E-06 7.68910E-21 2.87374E-12 4.86517E-20
 -1       251 1.42850E-06 1.42850E-06-4.76171E-06-1.22490E-11 7.20163E-12-7.20163E-12
 -1       252 1.42853E-06 1.42852E-06-4.76172E-06-1.64734E-20 4.57068E-12 1.04482E-19
 -1       253 1.42865E-06 1.42865E-06-4.76216E-06 1.54674E-11-1.01925E-11 1.01925E-11
 -1       254 1.42864E-06 1.42864E-06-4.76214E-06-3.23796E-12-3.72101E-13-7.09809E-12
 -1       255 1.42864E-06 1.42864E-06-4.76214E-06-3.23796E-12 7.09809E-12 3.72101E-13
 -1       256 1.42862E-06 1.42864E-06-4.76215E-06 1.61962E-21-1.47314E-11 8.94751E-20
 -1       257 1.42865E-06 1.42865E-06-4.76215E-06-8.41934E-21-6.96776E-13 7.17228E-20
 -1       258 1.42852E-06 1.42852E-06-4.76172E-06 3.45289E-12-1.74668E-12 1.74668E-12
 -1       259 1.42851E-06 1.42851E-06-4.76171E-06 7.94066E-21-9.68598E-13 9.97665E-20
 -1       260 1.42864E-06 1.42864E-06-4.76214E-06-4.44671E-12 2.36757E-12-2.36757E-12
 -1       261 1.42864E-06 1.42864E-06-4.76214E-06 9.09524E-13 8.29421E-14 1.70116E-12
 -1       262 1.42864E-06 1.42864E-06-4.76214E-06 9.09524E-13-1.70116E-12-8.29419E-14
 -1       263 1.42865E-06 1.42864E-06-4.76214E-06 6.83222E-21 3.66065E-12 1.24750E-19
 -1       264 1.42864E-06 1.42864E-06-4.76214E-06 1.91027E-21 1.81802E-13 4.89699E-20
 -1       265 1.42851E-06 1.42851E-06-4.76171E-06-1.02199E-12 4.40656E-13-4.40656E-13
 -1       266 1.42852E-06 1.42851E-06-4.76171E-06 3.19409E-21 2.17958E-13-1.09607E-20
 -1       267 1.42864E-06 1.42864E-06-4.76214E-06 1.23170E-12-5.30253E-13 5.30253E-13
 -1       268 1.42864E-06 1.42864E-06-4.76214E-06-2.71304E-13-1.91464E-14-4.15773E-13
 -1       269 1.42864E-06 1.42864E-06-4.76214E-06-2.71304E-13 4.15773E-13 1.91465E-14
 -1       270 1.42864E-06 1.42864E-06-4.76214E-06-6.57955E-21-9.08039E-13 7.30657E-20
 -1       271 1.42864E-06 1.42864E-06-4.76214E-06-1.30668E-20-4.83131E-14 6.14297E-20
 -1       272 1.42851E-06 1.42851E-06-4.76171E-06 5.32769E-13-1.15680E-13 1.15680E-13
 -1       273 1.42851E-06 1.42851E-06-4.76171E-06-2.42534E-20-4.17487E-14 7.55988E-20
 -1       274 1.42864E-06 1.42864E-06-4.76214E-06-2.39667E-13 6.84631E-14-6.84629E-14
 -1       275 1.42864E-06 1.42864E-06-4.76214E-06 1.39375E-13 1.33161E-13 1.83311E-13
 -1       276 1.42864E-06 1.42864E-06-4.76214E-06 1.39375E-13-1.83311E-13-1.33161E-13
 -1       277 1.42864E-06 1.42864E-06-4.76214E-06 6.44375E-22 2.19534E-13 8.47320E-20
 -1       278 1.42864E-06 1.42864E-06-4.76214E-06-1.05396E-20 3.09820E-14 1.19517E-20
 -1       279-4.79239E-11-4.79239E-11-4.47604E-06 2.68991E-13-1.06862E-06-1.06862E-06
 -1       280 1.35500E-06 1.35500E-06-4.69009E-06-3.32752E-08 1.94429E-07 1.94429E-07
 -1       281 5.33197E-11 5.32468E-11-4.20946E-06-1.02441E-13-1.06324E-06-5.35227E-07
 -1       282 1.36967E-06 1.38374E-06-4.81356E-06-2.83917E-08 1.95591E-07 6.35582E-08
 -1       283 5.32468E-11 5.33197E-11-4.20946E-06-1.02441E-13-5.35227E-07-1.06324E-06
 -1       284 1.40381E-06 1.40381E-06-4.53720E-06 3.89081E-09-1.96382E-07-1.96382E-07
 -1       285 1.38374E-06 1.36967E-06-4.81356E-06-2.83917E-08 6.35582E-08 1.95591E-07
 -1       286 1.43201E-06 1.43201E-06-4.75128E-06-1.15281E-08-3.47502E-09-3.47502E-09
 -1       287 1.42470E-06 1.43422E-06-4.76156E-06-6.79285E-09-6.30508E-09 1.79803E-09
 -1       288 1.42794E-06 1.42794E-06-4.75614E-06 9.10739E-09 4.89403E-09 4.89403E-09
 -1       289 1.43422E-06 1.42470E-06-4.76156E-06-6.79285E-09 1.79803E-09-6.30508E-09
 -1       290 1.42633E-06 1.42633E-06-4.76074E-06 8.85956E-10 2.53147E-09 2.53147E-09
 -1       291 1.42834E-06 1.42716E-06-4.76167E-06-4.33754E-11 2.19356E-09-4.10513E-11
 -1       292 1.43073E-06 1.43073E-06-4.76822E-06-9.31105E-10-3.71924E-09-3.71924E-09
 -1       293 1.42716E-06 1.42834E-06-4.76167E-06-4.33754E-11-4.10513E-11 2.19356E-09
 -1       294 1.42898E-06 1.42898E-06-4.76180E-06-5.27726E-10-4.80174E-10-4.80174E-10
 -1       295 1.42859E-06 1.42902E-06-4.76231E-06-1.69558E-10-5.01730E-10 3.13404E-11
 -1       296 1.42822E-06 1.42822E-06-4.76092E-06 5.60956E-10 7.18618E-10 7.18618E-10
 -1       297 1.42902E-06 1.42859E-06-4.76231E-06-1.69558E-10 3.13404E-11-5.01730E-10
 -1       298 1.42838E-06 1.42838E-06-4.76166E-06 1.43953E-10 1.25693E-10 1.25693E-10
 -1       299 1.42865E-06 1.42854E-06-4.76211E-06 3.78106E-11 1.24461E-10-6.83915E-12
 -1       300 1.42877E-06 1.42877E-06-4.76247E-06-1.68962E-10-1.85880E-10-1.85880E-10
 -1       301 1.42854E-06 1.42865E-06-4.76211E-06 3.78106E-11-6.83915E-12 1.24461E-10
 -1       302 1.42855E-06 1.42855E-06-4.76173E-06-4.29353E-11-2.97207E-11-2.97207E-11
 -1       303 1.42864E-06 1.42867E-06-4.76215E-06-1.15096E-11-2.95140E-11 1.54564E-12
 -1       304 1.42861E-06 1.42861E-06-4.76207E-06 5.23690E-11 4.30247E-11 4.30247E-11
 -1       305 1.42867E-06 1.42864E-06-4.76215E-06-1.15096E-11 1.54564E-12-2.95140E-11
 -1       306 1.42850E-06 1.42850E-06-4.76171E-06 1.22490E-11 7.20163E-12 7.20163E-12
 -1       307 1.42864E-06 1.42864E-06-4.76214E-06 3.23796E-12 7.09809E-12-3.72101E-13
 -1       308 1.42865E-06 1.42865E-06-4.76216E-06-1.54674E-11-1.01925E-11-1.01925E-11
 -1       309 1.42864E-06 1.42864E-06-4.76214E-06 3.23796E-12-3.72101E-13 7.09809E-12
 -1       310 1.42852E-06 1.42852E-06-4.76172E-06-3.45289E-12-1.74668E-12-1.74668E-12
 -1       311 1.42864E-06 1.42864E-06-4.76214E-06-9.09524E-13-1.70116E-12 8.29419E-14
 -1       312 1.42864E-06 1.42864E-06-4.76214E-06 4.44671E-12 2.36757E-12 2.36757E-12
 -1       313 1.42864E-06 1.42864E-06-4.76214E-06-9.09524E-13 8.29418E-14-1.70116E-12
 -1       314 1.42851E-06 1.42851E-06-4.76171E-06 1.02199E-12 4.40656E-13 4.40656E-13
 -1       315 1.42864E-06 1.42864E-06-4.76214E-06 2.71304E-13 4.15773E-13-1.91463E-14
 -1       316 1.42864E-06 1.42864E-06-4.76214E-06-1.23170E-12-5.30253E-13-5.30253E-13
 -1       317 1.42864E-06 1.42864E-06-4.76214E-06 2.71304E-13-1.91463E-14 4.15773E-13
 -1       318 1.42851E-06 1.42851E-06-4.76171E-06-5.32769E-13-1.15680E-13-1.15680E-13
 -1       319 1.42864E-06 1.42864E-06-4.76214E-06-1.39375E-13-1.83311E-13 1.33161E-13
 -1       320 1.42864E-06 1.42864E-06-4.76214E-06 2.39667E-13 6.84631E-14 6.84632E-14
 -1       321 1.42864E-06 1.42864E-06-4.76214E-06-1.39375E-13 1.33161E-13-1.83311E-13
 -3
    1PSTEP                         4           1           1          
  100CL  101 1.000000000         321                     0    1           1
 -4  ERROR       1    1
 -5  STR(%)      1    1    0    0
 -1         1 1.00434E+00
 -1         2 1.00434E+00
 -1         3 1.00434E+00
 -1         4 1.00434E+00
 -1         5 1.00434E+00
 -1         6 1.00434E+00
 -1         7 1.00434E+00
 -1         8 1.00434E+00
 -1         9 1.00434E+00
 -1        10 1.00434E+00
 -1        11 1.00434E+00
 -1        12 1.00434E+00
 -1        13 1.00434E+00
 -1        14 1.00434E+00
 -1        15 1.00434E+00
 -1        16 1.00434E+00
 -1        17 1.00434E+00
 -1        18 1.00434E+00
 -1        19 1.00434E+00
 -1        20 1.00434E+00
 -1        21 1.46728E-01
 -1        22 1.46728E-01
 -1        23 1.46728E-01
 -1        24 1.46728E-01
 -1        25 5.75534E-01
 -1        26 1.46728E-01
 -1        27 5.75534E-01
 -1        28 1.46728E-01
 -1        29 1.46728E-01
 -1        30 5.75534E-01
 -1        31 1.46728E-01
 -1        32 5.75534E-01
 -1        33 9.44884E-03
 -1        34 9.44884E-03
 -1        35 9.44884E-03
 -1        36 9.44884E-03
 -1        37 7.80886E-02
 -1        38 9.44884E-03
 -1        39 7.80886E-02
 -1        40 9.44884E-03
 -1        41 9.44884E-03
 -1        42 7.80886E-02
 -1        43 9.44884E-03
 -1        44 7.80886E-02
 -1        45 2.11514E-03
 -1        46 2.11514E-03
 -1        47 2.11514E-03
 -1        48 2.11514E-03
 -1        49 5.78199E-03
 -1        50 2.11514E-03
 -1        51 5.78199E-03
 -1        52 2.11514E-03
 -1        53 2.11514E-03
 -1        54 5.78199E-03
 -1        55 2.11514E-03
 -1        56 5.78199E-03
 -1        57 4.34224E-04
 -1        58 4.34224E-04
 -1        59 4.34224E-04
 -1        60 4.34224E-04
 -1        61 1.27468E-03
 -1        62 4.34224E-04
 -1        63 1.27468E-03
 -1        64 4.34224E-04
 -1        65 4.34224E-04
 -1        66 1.27468E-03
 -1        67 4.34224E-04
 -1        68 1.27468E-03
 -1        69 1.23871E-04
 -1        70 1.23871E-04
 -1        71 1.23871E-04
 -1        72 1.23871E-04
 -1        73 2.79048E-04
 -1        74 1.23871E-04
 -1        75 2.79048E-04
 -1        76 1.23871E-04
 -1        77 1.23871E-04
 -1        78 2.79048E-04
 -1        79 1.23871E-04
 -1        80 2.79048E-04
 -1        81 3.14065E-05
 -1        82 3.14065E-05
 -1        83 3.14065E-05
 -1        84 3.14065E-05
 -1        85 7.76390E-05
 -1        86 3.14065E-05
 -1        87 7.76390E-05
 -1        88 3.14065E-05
 -1        89 3.14065E-05
 -1        90 7.76390E-05
 -1        91 3.14065E-05
 -1        92 7.76390E-05
 -1        93 8.24179E-06
 -1        94 8.24179E-06
 -1        95 8.24179E-06
 -1        96 8.24179E-06
 -1        97 1.98242E-05
 -1        98 8.24179E-06
 -1        99 1.98242E-05
 -1       100 8.24179E-06
 -1       101 8.24179E-06
 -1       102 1.98242E-05
 -1       103 8.24179E-06
 -1       104 1.98242E-05
 -1       105 2.16372E-06
 -1       106 2.16372E-06
 -1       107 2.16372E-06
 -1       108 2.16372E-06
 -1       109 5.20275E-06
 -1       110 2.16372E-06
 -1       111 5.20275E-06
 -1       112 2.16372E-06
 -1       113 2.16372E-06
 -1       114 5.20275E-06
 -1       115 2.16372E-06
 -1       116 5.20275E-06
 -1       117 6.19920E-07
 -1       118 6.19920E-07
 -1       119 6.19920E-07
 -1       120 6.19920E-07
 -1       121 1.39182E-06
 -1       122 6.19920E-07
 -1       123 1.39182E-06
 -1       124 6.19920E-07
 -1       125 6.19920E-07
 -1       126 1.39182E-06
 -1       127 6.19920E-07
 -1       128 1.39182E-06
 -1       129 1.00434E+00
 -1       130 1.00434E+00
 -1       131 1.00434E+00
 -1       132 1.00434E+00
 -1       133 1.00434E+00
 -1       134 1.00434E+00
 -1       135 1.00434E+00
 -1       136 1.00434E+00
 -1       137 1.00434E+00
 -1       138 1.00434E+00
 -1       139 1.00434E+00
 -1       140 1.00434E+00
 -1       141 1.46728E-01
 -1       142 1.46728E-01
 -1       143 1.46728E-01
 -1       144 1.46728E-01
 -1       145 5.75534E-01
 -1       146 1.46728E-01
 -1       147 5.75534E-01
 -1       148 9.44884E-03
 -1       149 9.44884E-03
 -1       150 9.44884E-03
 -1       151 9.44884E-03
 -1       152 7.80886E-02
 -1       153 9.44884E-03
 -1       154 7.80886E-02
 -1       155 2.11514E-03
 -1       156 2.11514E-03
 -1       157 2.11514E-03
 -1       158 2.11514E-03
 -1       159 5.78199E-03
 -1       160 2.11514E-03
 -1       161 5.78199E-03
 -1       162 4.34224E-04
 -1       163 4.34224E-04
 -1       164 4.34224E-04
 -1       165 4.34224E-04
 -1       166 1.27468E-03
 -1       167 4.34224E-04
 -1       168 1.27468E-03
 -1       169 1.23871E-04
 -1       170 1.23871E-04
 -1       171 1.23871E-04
 -1       172 1.23871E-04
 -1       173 2.79048E-04
 -1       174 1.23871E-04
 -1       175 2.79048E-04
 -1       176 3.14065E-05
 -1       177 3.14065E-05
 -1       178 3.14065E-05
 -1       179 3.14065E-05
 -1       180 7.76390E-05
 -1       181 3.14065E-05
 -1       182 7.76390E-05
 -1       183 8.24179E-06
 -1       184 8.24179E-06
 -1       185 8.24179E-06
 -1       186 8.24179E-06
 -1       187 1.98242E-05
 -1       188 8.24179E-06
 -1       189 1.98242E-05
 -1       190 2.16372E-06
 -1       191 2.16372E-06
 -1       192 2.16372E-06
 -1       193 2.16372E-06
 -1       194 5.20275E-06
 -1       195 2.16372E-06
 -1       196 5.20275E-06
 -1       197 6.19920E-07
 -1       198 6.19920E-07
 -1       199 6.19920E-07
 -1       200 6.19920E-07
 -1       201 1.39182E-06
 -1       202 6.19920E-07
 -1       203 1.39182E-06
 -1       204 1.00434E+00
 -1       205 1.00434E+00
 -1       206 1.00434E+00
 -1       207 1.00434E+00
 -1       208 1.00434E+00
 -1       209 1.00434E+00
 -1       210 1.00434E+00
 -1       211 1.00434E+00
 -1       212 1.00434E+00
 -1       213 1.00434E+00
 -1       214 1.00434E+00
 -1       215 1.00434E+00
 -1       216 1.46728E-01
 -1       217 1.46728E-01
 -1       218 5.75534E-01
 -1       219 1.46728E-01
 -1       220 1.46728E-01
 -1       221 5.75534E-01
 -1       222 1.46728E-01
 -1       223 9.44884E-03
 -1       224 9.44884E-03
 -1       225 7.80886E-02
 -1       226 9.44884E-03
 -1       227 9.44884E-03
 -1       228 7.80886E-02
 -1       229 9.44884E-03
 -1       230 2.11514E-03
 -1       231 2.11514E-03
 -1       232 5.78199E-03
 -1       233 2.11514E-03
 -1       234 2.11514E-03
 -1       235 5.78199E-03
 -1       236 2.11514E-03
 -1       237 4.34224E-04
 -1       238 4.34224E-04
 -1       239 1.27468E-03
 -1       240 4.34224E-04
 -1       241 4.34224E-04
 -1       242 1.27468E-03
 -1       243 4.34224E-04
 -1       244 1.23871E-04
 -1       245 1.23871E-04
 -1       246 2.79048E-04
 -1       247 1.23871E-04
 -1       248 1.23871E-04
 -1       249 2.79048E-04
 -1       250 1.23871E-04
 -1       251 3.14065E-05
 -1       252 3.14065E-05
 -1       253 7.76390E-05
 -1       254 3.14065E-05
 -1       255 3.14065E-05
 -1       256 7.76390E-05
 -1       257 3.14065E-05
 -1       258 8.24179E-06
 -1       259 8.24179E-06
 -1       260 1.98242E-05
 -1       261 8.24179E-06
 -1       262 8.24179E-06
 -1       263 1.98242E-05
 -1       264 8.24179E-06
 -1       265 2.16372E-06
 -1       266 2.16372E-06
 -1       267 5.20275E-06
 -1       268 2.16372E-06
 -1       269 2.16372E-06
 -1       270 5.20275E-06
 -1       271 2.16372E-06
 -1       272 6.19920E-07
 -1       273 6.19920E-07
 -1       274 1.39182E-06
 -1       275 6.19920E-07
 -1       276 6.19920E-07
 -1       277 1.39182E-06
 -1       278 6.19920E-07
 -1       279 1.00434E+00
 -1       280 1.00434E+00
 -1       281 1.00434E+00
 -1       282 1.00434E+00
 -1       283 1.00434E+00
 -1       284 1.00434E+00
 -1       285 1.00434E+00
 -1       286 1.46728E-01
 -1       287 1.46728E-01
 -1       288 5.75534E-01
 -1       289 1.46728E-01
 -1       290 9.44884E-03
 -1       291 9.44884E-03
 -1       292 7.80886E-02
 -1       293 9.44884E-03
 -1       294 2.11514E-03
 -1       295 2.11514E-03
 -1       296 5.78199E-03
 -1       297 2.11514E-03
 -1       298 4.34224E-04
 -1       299 4.34224E-04
 -1       300 1.27468E-03
 -1       301 4.34224E-04
 -1       302 1.23871E-04
 -1       303 1.23871E-04
 -1       304 2.79048E-04
 -1       305 1.23871E-04
 -1       306 3.14065E-05
 -1       307 3.14065E-05
 -1       308 7.76390E-05
 -1       309 3.14065E-05
 -1       310 8.24179E-06
 -1       311 8.24179E-06
 -1       312 1.98242E-05
 -1       313 8.24179E-06
 -1       314 2.16372E-06
 -1       315 2.16372E-06
 -1       316 5.20275E-06
 -1       317 2.16372E-06
 -1       318 6.19920E-07
 -1       319 6.19920E-07
 -1       320 1.39182E-06
 -1       321 6.19920E-07
 -3
 9999
