
 displacements (vx,vy,vz) for set NALL and time  0.1000000E+00

         2  0.000000E+00  0.000000E+00  0.000000E+00
        10  1.362336E-05  0.000000E+00  0.000000E+00
        11  6.811680E-06 -3.264386E-20  0.000000E+00
        12 -7.451768E-20 -6.811680E-06  0.000000E+00
        13 -1.692213E-19 -1.362336E-05  0.000000E+00
        33  1.529926E-19 -2.288346E-19  3.952214E-05
        34  5.833229E-19 -8.241204E-19  7.904427E-05
        93  1.362336E-05 -6.811680E-06  0.000000E+00
        95  1.362336E-05 -1.362336E-05  0.000000E+00
        96  6.811680E-06 -1.362336E-05  0.000000E+00
       103  1.362336E-05 -2.410338E-19  3.952214E-05
       105  1.362336E-05 -8.447864E-19  7.904427E-05
       106  6.811680E-06 -8.553462E-19  7.904427E-05
       132 -1.429016E-21 -1.362336E-05  3.952214E-05
       133  5.128541E-19 -6.811680E-06  7.904427E-05
       134  4.293089E-19 -1.362336E-05  7.904427E-05
       219  1.362336E-05 -1.362336E-05  3.952214E-05
       220  1.362336E-05 -6.811680E-06  7.904427E-05
       222  1.362336E-05 -1.362336E-05  7.904427E-05
       223  6.811680E-06 -1.362336E-05  7.904427E-05

 forces (fx,fy,fz) for set NALL and time  0.1000000E+00

         2 -9.091450E-06  9.091450E-06  4.166353E-01
        10  9.091450E-06  9.091450E-06  4.166353E-01
        11  4.793967E-16 -3.636580E-05 -1.666541E+00
        12  3.636580E-05 -4.310529E-18 -1.666541E+00
        13 -9.091450E-06 -9.091450E-06  4.166353E-01
        33  3.636580E-05 -3.636580E-05 -7.756607E-16
        34 -9.091450E-06  9.091450E-06 -4.166353E-01
        93 -3.636580E-05  2.776257E-16 -1.666541E+00
        95  9.091450E-06 -9.091450E-06  4.166353E-01
        96  1.374413E-16  3.636580E-05 -1.666541E+00
       103 -3.636580E-05 -3.636580E-05  6.257859E-16
       105  9.091450E-06  9.091450E-06 -4.166353E-01
       106 -2.706337E-16 -3.636580E-05  1.666541E+00
       132  3.636580E-05  3.636580E-05 -5.331361E-16
       133  3.636580E-05 -8.589947E-16  1.666541E+00
       134 -9.091450E-06 -9.091450E-06 -4.166353E-01
       219 -3.636580E-05  3.636580E-05  4.108859E-16
       220 -3.636580E-05 -6.930559E-16  1.666541E+00
       222  9.091450E-06 -9.091450E-06 -4.166353E-01
       223 -5.773958E-16  3.636580E-05  1.666541E+00

 stresses (elem, integ.pnt.,sxx,syy,szz,sxy,sxz,syz) for set EALL and time  0.1000000E+00

         1   1  2.181835E-04  2.181835E-04  1.999958E+01  2.629894E-15  3.298334E-15 -4.065385E-15
         1   2  2.181835E-04  2.181835E-04  1.999958E+01 -1.248368E-15  2.099538E-15 -4.298261E-15
         1   3  2.181835E-04  2.181835E-04  1.999958E+01  3.195821E-15  2.474296E-15 -5.455257E-15
         1   4  2.181835E-04  2.181835E-04  1.999958E+01 -6.657960E-16  2.932216E-15 -4.531452E-15
         1   5  2.181835E-04  2.181835E-04  1.999958E+01 -9.986941E-16  2.399466E-15 -3.598883E-15
         1   6  2.181835E-04  2.181835E-04  1.999958E+01  1.381527E-15  1.467133E-15 -3.665319E-15
         1   7  2.181835E-04  2.181835E-04  1.999958E+01 -3.861617E-15  5.345645E-16 -2.400136E-15
         1   8  2.181835E-04  2.181835E-04  1.999958E+01 -7.989552E-16  1.334005E-15 -2.133446E-15
         1   9  2.181835E-04  2.181835E-04  1.999958E+01 -1.148498E-15  1.733785E-15 -2.299841E-15
         1  10  2.181835E-04  2.181835E-04  1.999958E+01 -2.030678E-15  6.613893E-15  3.390098E-15
         1  11  2.181835E-04  2.181835E-04  1.999958E+01 -3.328980E-16  8.618250E-16  2.519213E-15
         1  12  2.181835E-04  2.181835E-04  1.999958E+01  9.986941E-17  3.275540E-16  1.862047E-15
         1  13  2.181835E-04  2.181835E-04  1.999958E+01 -6.657960E-16  2.670377E-15  1.055876E-15
         1  14  2.181835E-04  2.181835E-04  1.999958E+01  1.198433E-15 -1.924484E-15 -2.373580E-15
         1  15  2.181835E-04  2.181835E-04  1.999958E+01  1.364882E-15 -3.095039E-16 -2.909899E-15
         1  16  2.181835E-04  2.181835E-04  1.999958E+01  2.396866E-15 -1.717771E-15 -1.544604E-15
         1  17  2.181835E-04  2.181835E-04  1.999958E+01  9.321144E-16 -5.376612E-15 -1.319219E-15
         1  18  2.181835E-04  2.181835E-04  1.999958E+01 -4.660572E-16 -2.377088E-15 -1.543953E-15
         1  19  2.181835E-04  2.181835E-04  1.999958E+01 -1.914164E-15  1.069983E-14  1.515356E-15
         1  20  2.181835E-04  2.181835E-04  1.999958E+01  4.161225E-16  8.440383E-16 -5.709953E-15
         1  21  2.181835E-04  2.181835E-04  1.999958E+01 -9.820492E-16 -1.184226E-14  2.863981E-15
         1  22  2.181835E-04  2.181835E-04  1.999958E+01  3.328980E-16  3.207979E-15 -8.007463E-15
         1  23  2.181835E-04  2.181835E-04  1.999958E+01  5.992164E-16  9.437711E-16 -5.476880E-15
         1  24  2.181835E-04  2.181835E-04  1.999958E+01  1.081919E-15 -4.949663E-15 -3.878827E-15
         1  25  2.181835E-04  2.181835E-04  1.999958E+01 -3.994776E-16  1.412916E-14 -1.360114E-14
         1  26  2.181835E-04  2.181835E-04  1.999958E+01 -1.398172E-15 -2.550546E-16 -9.871891E-15
         1  27  2.181835E-04  2.181835E-04  1.999958E+01 -9.487594E-16  1.448038E-16 -1.153725E-14

 displacements (vx,vy,vz) for set NALL and time  0.2000000E+00

         2  0.000000E+00  0.000000E+00  0.000000E+00
        10  2.161428E-05  0.000000E+00  0.000000E+00
        11  1.080714E-05 -8.209677E-22  0.000000E+00
        12 -3.156257E-20 -1.080714E-05  0.000000E+00
        13 -9.516147E-20 -2.161428E-05  0.000000E+00
        33  1.501953E-19 -5.693645E-20  5.550111E-05
        34  5.090143E-19 -3.237822E-19  1.110022E-04
        93  2.161428E-05 -1.080714E-05  0.000000E+00
        95  2.161428E-05 -2.161428E-05  0.000000E+00
        96  1.080714E-05 -2.161428E-05  0.000000E+00
       103  2.161428E-05 -7.630906E-20  5.550111E-05
       105  2.161428E-05 -3.969773E-19  1.110022E-04
       106  1.080714E-05 -3.881530E-19  1.110022E-04
       132  3.360881E-20 -2.161428E-05  5.550111E-05
       133  4.163871E-19 -1.080714E-05  1.110022E-04
       134  3.415871E-19 -2.161428E-05  1.110022E-04
       219  2.161428E-05 -2.161428E-05  5.550111E-05
       220  2.161428E-05 -1.080714E-05  1.110022E-04
       222  2.161428E-05 -2.161428E-05  1.110022E-04
       223  1.080714E-05 -2.161428E-05  1.110022E-04

 forces (fx,fy,fz) for set NALL and time  0.2000000E+00

         2 -8.162304E-06  8.162304E-06  4.166228E-01
        10  8.162304E-06  8.162304E-06  4.166228E-01
        11  1.069338E-16 -3.264922E-05 -1.666491E+00
        12  3.264922E-05  1.049348E-15 -1.666491E+00
        13 -8.162304E-06 -8.162304E-06  4.166228E-01
        33  3.264922E-05 -3.264922E-05  1.017351E-15
        34 -8.162304E-06  8.162304E-06 -4.166228E-01
        93 -3.264922E-05  1.450246E-15 -1.666491E+00
        95  8.162304E-06 -8.162304E-06  4.166228E-01
        96 -4.916850E-16  3.264922E-05 -1.666491E+00
       103 -3.264922E-05 -3.264922E-05 -6.015852E-16
       105  8.162304E-06  8.162304E-06 -4.166228E-01
       106  2.159228E-15 -3.264922E-05  1.666491E+00
       132  3.264922E-05  3.264922E-05 -1.309611E-15
       133  3.264922E-05 -8.843296E-16  1.666491E+00
       134 -8.162304E-06 -8.162304E-06 -4.166228E-01
       219 -3.264922E-05  3.264922E-05  1.916221E-16
       220 -3.264922E-05  1.343168E-15  1.666491E+00
       222  8.162304E-06 -8.162304E-06 -4.166228E-01
       223 -5.099319E-16  3.264922E-05  1.666491E+00

 stresses (elem, integ.pnt.,sxx,syy,szz,sxy,sxz,syz) for set EALL and time  0.2000000E+00

         1   1  1.958820E-04  1.958820E-04  1.999963E+01  4.567882E-15  2.088480E-15  9.123663E-15
         1   2  1.958820E-04  1.958820E-04  1.999963E+01 -6.278406E-16  4.405673E-15  4.083123E-15
         1   3  1.958820E-04  1.958820E-04  1.999963E+01  4.260984E-16  4.339647E-15  3.770391E-15
         1   4  1.958820E-04  1.958820E-04  1.999963E+01  2.781213E-15  3.425876E-15  8.100725E-15
         1   5  1.958820E-04  1.958820E-04  1.999963E+01 -2.287850E-17  2.028291E-15  4.019291E-15
         1   6  1.958820E-04  1.958820E-04  1.999963E+01 -1.286685E-15  8.203807E-17  3.644970E-15
         1   7  1.958820E-04  1.958820E-04  1.999963E+01 -3.337690E-15  1.399436E-15  6.764222E-15
         1   8  1.958820E-04  1.958820E-04  1.999963E+01  9.671182E-16  1.897467E-15  2.667748E-15
         1   9  1.958820E-04  1.958820E-04  1.999963E+01 -5.989198E-16  2.146498E-15  3.796113E-15
         1  10  1.958820E-04  1.958820E-04  1.999963E+01  2.896427E-15  8.913653E-15  3.859938E-15
         1  11  1.958820E-04  1.958820E-04  1.999963E+01 -1.805354E-15  5.219339E-15  2.660892E-15
         1  12  1.958820E-04  1.958820E-04  1.999963E+01 -3.033874E-15  4.104934E-15 -2.938348E-16
         1  13  1.958820E-04  1.958820E-04  1.999963E+01  1.849058E-15 -3.663593E-15  4.920822E-15
         1  14  1.958820E-04  1.958820E-04  1.999963E+01  6.133802E-16 -2.196902E-15 -1.112025E-15
         1  15  1.958820E-04  1.958820E-04  1.999963E+01  8.453328E-17  7.240924E-16 -3.443354E-15
         1  16  1.958820E-04  1.958820E-04  1.999963E+01  3.357400E-15 -4.500697E-15  5.749254E-15
         1  17  1.958820E-04  1.958820E-04  1.999963E+01  1.779131E-15 -4.566456E-15 -3.278652E-15
         1  18  1.958820E-04  1.958820E-04  1.999963E+01 -3.286536E-15  2.279717E-16 -2.831648E-15
         1  19  1.958820E-04  1.958820E-04  1.999963E+01  3.451731E-15  8.432516E-15  2.631959E-14
         1  20  1.958820E-04  1.958820E-04  1.999963E+01  2.805998E-15  5.822656E-15 -9.518421E-15
         1  21  1.958820E-04  1.958820E-04  1.999963E+01 -8.614367E-16 -4.670201E-15  7.662364E-15
         1  22  1.958820E-04  1.958820E-04  1.999963E+01  3.336751E-15  1.733728E-15  3.802778E-15
         1  23  1.958820E-04  1.958820E-04  1.999963E+01  1.372010E-15  4.186189E-15  3.381451E-15
         1  24  1.958820E-04  1.958820E-04  1.999963E+01  7.571925E-16  1.546887E-15  8.173520E-15
         1  25  1.958820E-04  1.958820E-04  1.999963E+01  4.169766E-16 -1.585809E-15 -5.010225E-15
         1  26  1.958820E-04  1.958820E-04  1.999963E+01 -1.070717E-15  1.089619E-16 -5.084539E-15
         1  27  1.958820E-04  1.958820E-04  1.999963E+01 -1.073738E-15  1.228009E-14  1.279290E-14

 displacements (vx,vy,vz) for set NALL and time  0.3500000E+00

         2  0.000000E+00  0.000000E+00  0.000000E+00
        10  3.359709E-05  0.000000E+00  0.000000E+00
        11  1.679855E-05 -1.684203E-20  0.000000E+00
        12 -7.143195E-20 -1.679855E-05  0.000000E+00
        13 -2.294084E-19 -3.359709E-05  0.000000E+00
        33  3.517353E-19 -2.295216E-19  7.946099E-05
        34  1.240380E-18 -8.827849E-19  1.589220E-04
        93  3.359709E-05 -1.679855E-05  0.000000E+00
        95  3.359709E-05 -3.359709E-05  0.000000E+00
        96  1.679855E-05 -3.359709E-05  0.000000E+00
       103  3.359709E-05 -2.612646E-19  7.946099E-05
       105  3.359709E-05 -9.594465E-19  1.589220E-04
       106  1.679855E-05 -9.709545E-19  1.589220E-04
       132  8.471290E-20 -3.359709E-05  7.946099E-05
       133  1.092137E-18 -1.679855E-05  1.589220E-04
       134  9.638104E-19 -3.359709E-05  1.589220E-04
       219  3.359709E-05 -3.359709E-05  7.946099E-05
       220  3.359709E-05 -1.679855E-05  1.589220E-04
       222  3.359709E-05 -3.359709E-05  1.589220E-04
       223  1.679855E-05 -3.359709E-05  1.589220E-04

 forces (fx,fy,fz) for set NALL and time  0.3500000E+00

         2  1.221610E-12 -1.222063E-12  4.166107E-01
        10 -1.220905E-12 -1.221901E-12  4.166107E-01
        11 -1.155745E-15  4.887634E-12 -1.666443E+00
        12 -4.886670E-12  1.009577E-15 -1.666443E+00
        13  1.222068E-12  1.221454E-12  4.166107E-01
        33 -4.886040E-12  4.886945E-12 -1.069549E-15
        34  1.220970E-12 -1.222143E-12 -4.166107E-01
        93  4.887067E-12  1.050687E-15 -1.666443E+00
        95 -1.220912E-12  1.220891E-12  4.166107E-01
        96 -1.230553E-15 -4.887396E-12 -1.666443E+00
       103  4.885939E-12  4.886751E-12 -1.700785E-15
       105 -1.222612E-12 -1.222730E-12 -4.166107E-01
       106  1.439401E-15  4.885855E-12  1.666443E+00
       132 -4.886428E-12 -4.886388E-12 -2.592802E-16
       133 -4.885642E-12  1.616386E-15  1.666443E+00
       134  1.220311E-12  1.220375E-12 -4.166107E-01
       219  4.886932E-12 -4.886759E-12 -7.920029E-16
       220  4.885973E-12  9.685546E-16  1.666443E+00
       222 -1.222507E-12  1.221755E-12 -4.166107E-01
       223  1.793839E-15 -4.886923E-12  1.666443E+00

 stresses (elem, integ.pnt.,sxx,syy,szz,sxy,sxz,syz) for set EALL and time  0.3500000E+00

         1   1 -2.934786E-11 -2.934430E-11  2.000000E+01  4.355253E-15  1.993330E-15 -2.840923E-15
         1   2 -2.929901E-11 -2.930434E-11  2.000000E+01 -1.505616E-15  9.661932E-16 -5.091219E-15
         1   3 -2.933631E-11 -2.933187E-11  2.000000E+01  5.545694E-15  4.946614E-15 -4.778582E-15
         1   4 -2.934075E-11 -2.933542E-11  2.000000E+01  1.457867E-15  4.712572E-15 -2.928709E-15
         1   5 -2.932921E-11 -2.933542E-11  2.000000E+01  1.556712E-15  1.289290E-15 -3.274795E-15
         1   6 -2.930789E-11 -2.931322E-11  2.000000E+01  4.984047E-15  6.892598E-16 -2.350011E-15
         1   7 -2.930878E-11 -2.931855E-11  2.000000E+01 -3.094125E-15  5.219586E-15 -4.903909E-16
         1   8 -2.933365E-11 -2.934253E-11  2.000000E+01  1.851550E-15  2.117620E-15 -2.862291E-15
         1   9 -2.931411E-11 -2.931589E-11  2.000000E+01  3.495759E-15  1.799776E-15 -1.149655E-15
         1  10 -2.933010E-11 -2.932743E-11  2.000000E+01  2.857225E-16 -6.955466E-15 -9.736323E-16
         1  11 -2.930967E-11 -2.931233E-11  2.000000E+01  1.238640E-15  3.420358E-16 -4.848148E-15
         1  12 -2.931855E-11 -2.932299E-11  2.000000E+01 -1.646328E-15  7.993904E-16  1.671416E-15
         1  13 -2.929280E-11 -2.929813E-11  2.000000E+01 -3.753498E-16 -2.139345E-15 -2.932176E-18
         1  14 -2.931766E-11 -2.931500E-11  2.000000E+01  2.114311E-15 -2.715516E-15 -4.062684E-15
         1  15 -2.930789E-11 -2.931322E-11  2.000000E+01  3.573869E-15 -1.800584E-15 -2.726618E-15
         1  16 -2.935674E-11 -2.935052E-11  2.000000E+01 -1.825723E-15 -2.173900E-15 -3.582027E-15
         1  17 -2.933010E-11 -2.932743E-11  2.000000E+01  3.618311E-17 -2.118155E-15 -9.295123E-15
         1  18 -2.929457E-11 -2.929724E-11  2.000000E+01 -2.787212E-15 -7.510011E-15 -1.679571E-15
         1  19 -2.929813E-11 -2.930701E-11  2.000000E+01 -9.549687E-17  1.401551E-14 -6.163037E-15
         1  20 -2.928481E-11 -2.928747E-11  2.000000E+01  1.778987E-15  1.941601E-15 -5.951211E-15
         1  21 -2.931589E-11 -2.931766E-11  2.000000E+01 -6.196169E-16 -1.955494E-15 -2.548326E-15
         1  22 -2.928658E-11 -2.929813E-11  2.000000E+01 -4.919336E-16  5.626825E-15 -1.377229E-15
         1  23 -2.930701E-11 -2.930523E-11  2.000000E+01  1.055328E-15 -3.754715E-17 -6.978948E-15
         1  24 -2.933276E-11 -2.933809E-11  2.000000E+01  2.525845E-15 -1.397653E-14 -4.074220E-15
         1  25 -2.926971E-11 -2.927681E-11  2.000000E+01 -2.246521E-15  4.559328E-15 -2.186287E-15
         1  26 -2.933365E-11 -2.934075E-11  2.000000E+01 -2.914286E-15 -1.278482E-15 -7.830251E-15
         1  27 -2.934164E-11 -2.934874E-11  2.000000E+01 -4.507772E-16  2.356545E-15 -1.230220E-14

 displacements (vx,vy,vz) for set NALL and time  0.5750000E+00

         2  0.000000E+00  0.000000E+00  0.000000E+00
        10  5.155853E-05  0.000000E+00  0.000000E+00
        11  2.577927E-05  1.903457E-20  0.000000E+00
        12 -3.893912E-20 -2.577927E-05  0.000000E+00
        13 -1.212725E-19 -5.155853E-05  0.000000E+00
        33  4.409058E-19  1.575326E-19  1.153720E-04
        34  1.625437E-18  3.424748E-19  2.307441E-04
        93  5.155853E-05 -2.577927E-05  0.000000E+00
        95  5.155853E-05 -5.155853E-05  0.000000E+00
        96  2.577927E-05 -5.155853E-05  0.000000E+00
       103  5.155853E-05  1.175273E-19  1.153720E-04
       105  5.155853E-05  2.763825E-19  2.307441E-04
       106  2.577927E-05  2.823494E-19  2.307441E-04
       132  2.282764E-19 -5.155853E-05  1.153720E-04
       133  1.511690E-18 -2.577927E-05  2.307441E-04
       134  1.338142E-18 -5.155853E-05  2.307441E-04
       219  5.155853E-05 -5.155853E-05  1.153720E-04
       220  5.155853E-05 -2.577927E-05  2.307441E-04
       222  5.155853E-05 -5.155853E-05  2.307441E-04
       223  2.577927E-05 -5.155853E-05  2.307441E-04

 forces (fx,fy,fz) for set NALL and time  0.5750000E+00

         2 -1.349701E-12  1.349300E-12  4.165807E-01
        10  1.349225E-12  1.349262E-12  4.165807E-01
        11  3.610144E-16 -5.399582E-12 -1.666323E+00
        12  5.398405E-12  6.218380E-16 -1.666323E+00
        13 -1.350090E-12 -1.349897E-12  4.165807E-01
        33  5.399066E-12 -5.398939E-12  1.656932E-16
        34 -1.351064E-12  1.351343E-12 -4.165807E-01
        93 -5.398377E-12  4.150247E-16 -1.666323E+00
        95  1.348977E-12 -1.349679E-12  4.165807E-01
        96  9.595379E-16  5.398645E-12 -1.666323E+00
       103 -5.399175E-12 -5.399975E-12  2.493400E-16
       105  1.349444E-12  1.350793E-12 -4.165807E-01
       106  1.583145E-15 -5.399030E-12  1.666323E+00
       132  5.399685E-12  5.399264E-12 -9.507640E-16
       133  5.399721E-12 -2.114146E-15  1.666323E+00
       134 -1.350452E-12 -1.348998E-12 -4.165807E-01
       219 -5.399242E-12  5.400081E-12 -1.208204E-15
       220 -5.399350E-12 -1.949423E-15  1.666323E+00
       222  1.348374E-12 -1.348489E-12 -4.165807E-01
       223  1.649336E-15  5.398929E-12  1.666323E+00

 stresses (elem, integ.pnt.,sxx,syy,szz,sxy,sxz,syz) for set EALL and time  0.5750000E+00

         1   1  3.239416E-11  3.240837E-11  2.000000E+01  4.990831E-15 -3.049161E-15  6.677863E-15
         1   2  3.242347E-11  3.243235E-11  2.000000E+01 -2.529275E-16  4.115184E-16  5.633728E-15
         1   3  3.238439E-11  3.239327E-11  2.000000E+01 -1.747869E-15  1.339771E-15  1.103238E-14
         1   4  3.237107E-11  3.238084E-11  2.000000E+01  1.251242E-15  2.723918E-15  7.456183E-15
         1   5  3.236663E-11  3.237640E-11  2.000000E+01  9.309903E-16  1.635663E-15  5.859915E-15
         1   6  3.238262E-11  3.238706E-11  2.000000E+01  1.228334E-15  2.060843E-15  7.339007E-15
         1   7  3.244922E-11  3.244478E-11  2.000000E+01 -7.467017E-15  6.925171E-15  7.764680E-15
         1   8  3.236841E-11  3.236841E-11  2.000000E+01  2.866603E-15  1.261965E-15  5.309992E-15
         1   9  3.239860E-11  3.239860E-11  2.000000E+01  9.515862E-15 -2.768494E-15  4.223629E-15
         1  10  3.237285E-11  3.238706E-11  2.000000E+01  2.115513E-16 -7.757168E-15 -1.393199E-15
         1  11  3.240837E-11  3.240393E-11  2.000000E+01 -1.090944E-16 -9.904437E-16 -5.260305E-16
         1  12  3.238262E-11  3.238706E-11  2.000000E+01 -2.598579E-15  7.946090E-15  9.764046E-15
         1  13  3.241636E-11  3.241636E-11  2.000000E+01 -2.331885E-15  4.355523E-15 -1.725180E-15
         1  14  3.238439E-11  3.238439E-11  2.000000E+01  1.712362E-16 -4.183643E-16 -1.452346E-15
         1  15  3.239416E-11  3.238439E-11  2.000000E+01 -3.875232E-16 -4.243355E-15 -1.199282E-15
         1  16  3.236663E-11  3.237640E-11  2.000000E+01 -3.670552E-15  3.200402E-15 -5.796876E-15
         1  17  3.238972E-11  3.238972E-11  2.000000E+01 -3.968329E-15 -1.015390E-15  2.406032E-15
         1  18  3.240482E-11  3.240926E-11  2.000000E+01 -1.044727E-15  7.004299E-16 -6.729358E-15
         1  19  3.236042E-11  3.235598E-11  2.000000E+01 -2.032278E-15  7.672779E-15  2.456330E-14
         1  20  3.238262E-11  3.237818E-11  2.000000E+01  3.650673E-15  5.275124E-15  4.539624E-15
         1  21  3.235509E-11  3.235154E-11  2.000000E+01  1.978360E-15  7.417061E-15  5.936870E-15
         1  22  3.242347E-11  3.241459E-11  2.000000E+01 -2.732587E-17 -3.401341E-15  6.659131E-15
         1  23  3.239860E-11  3.238883E-11  2.000000E+01  1.080742E-15  9.030378E-16  2.111308E-15
         1  24  3.237374E-11  3.236930E-11  2.000000E+01  3.672784E-15  8.088354E-15 -4.628971E-16
         1  25  3.243057E-11  3.243501E-11  2.000000E+01 -2.400142E-15 -4.940477E-15 -3.106115E-15
         1  26  3.240038E-11  3.239594E-11  2.000000E+01  1.210132E-15 -9.588769E-15  1.479646E-14
         1  27  3.240038E-11  3.241370E-11  2.000000E+01  4.041692E-15 -1.620183E-14 -1.373392E-14

 displacements (vx,vy,vz) for set NALL and time  0.9125000E+00

         2  0.000000E+00  0.000000E+00  0.000000E+00
        10  7.847291E-05  0.000000E+00  0.000000E+00
        11  3.923646E-05  5.241019E-22  0.000000E+00
        12 -1.255761E-19 -3.923646E-05  0.000000E+00
        13 -2.928717E-19 -7.847291E-05  0.000000E+00
        33  4.895378E-19  2.061157E-20  1.691759E-04
        34  1.882441E-18 -6.789818E-20  3.383517E-04
        93  7.847291E-05 -3.923646E-05  0.000000E+00
        95  7.847291E-05 -7.847291E-05  0.000000E+00
        96  3.923646E-05 -7.847291E-05  0.000000E+00
       103  7.847291E-05 -9.218561E-20  1.691759E-04
       105  7.847291E-05 -2.476004E-19  3.383517E-04
       106  3.923646E-05 -2.533317E-19  3.383517E-04
       132  1.528776E-19 -7.847291E-05  1.691759E-04
       133  1.719001E-18 -3.923646E-05  3.383517E-04
       134  1.535464E-18 -7.847291E-05  3.383517E-04
       219  7.847291E-05 -7.847291E-05  1.691759E-04
       220  7.847291E-05 -3.923646E-05  3.383517E-04
       222  7.847291E-05 -7.847291E-05  3.383517E-04
       223  3.923646E-05 -7.847291E-05  3.383517E-04

 forces (fx,fy,fz) for set NALL and time  0.9125000E+00

         2 -2.709666E-13  2.711741E-13  4.165359E-01
        10  2.682830E-13  2.700161E-13  4.165359E-01
        11  2.997226E-15 -1.078926E-12 -1.666144E+00
        12  1.078660E-12 -2.770967E-15 -1.666144E+00
        13 -2.694522E-13 -2.683430E-13  4.165359E-01
        33  1.078866E-12 -1.078113E-12 -1.162654E-15
        34 -2.716573E-13  2.712461E-13 -4.165359E-01
        93 -1.078858E-12 -3.281092E-16 -1.666144E+00
        95  2.688938E-13 -2.693467E-13  4.165359E-01
        96  5.433230E-16  1.079248E-12 -1.666144E+00
       103 -1.078928E-12 -1.079270E-12  3.082874E-16
       105  2.686292E-13  2.693878E-13 -4.165359E-01
       106  2.732359E-15 -1.080175E-12  1.666144E+00
       132  1.079186E-12  1.078651E-12  4.561781E-16
       133  1.079588E-12 -1.379478E-15  1.666144E+00
       134 -2.709726E-13 -2.699543E-13 -4.165359E-01
       219 -1.078930E-12  1.079590E-12  5.095953E-16
       220 -1.079352E-12  1.059245E-15  1.666144E+00
       222  2.693976E-13 -2.706501E-13 -4.165359E-01
       223  1.340628E-15  1.078885E-12  1.666144E+00

 stresses (elem, integ.pnt.,sxx,syy,szz,sxy,sxz,syz) for set EALL and time  0.9125000E+00

         1   1  6.511697E-12  6.484173E-12  2.000000E+01  1.501044E-15 -3.534877E-15 -8.779805E-15
         1   2  6.493940E-12  6.484173E-12  2.000000E+01 -3.598746E-15 -1.480481E-15 -5.323077E-15
         1   3  6.453985E-12  6.453985E-12  2.000000E+01 -1.243079E-15 -2.194754E-15 -3.963155E-16
         1   4  6.444219E-12  6.444219E-12  2.000000E+01  5.521936E-16  2.870527E-15 -5.426679E-15
         1   5  6.435340E-12  6.435340E-12  2.000000E+01  1.656268E-16  8.228287E-16 -2.574154E-15
         1   6  6.480622E-12  6.480622E-12  2.000000E+01  1.950857E-15 -1.289499E-15 -3.353890E-15
         1   7  6.559643E-12  6.559643E-12  2.000000E+01 -1.893775E-15  5.940594E-16  3.055042E-16
         1   8  6.489500E-12  6.489500E-12  2.000000E+01  2.911712E-15  3.796735E-15 -2.191996E-15
         1   9  6.484173E-12  6.493940E-12  2.000000E+01 -4.555386E-16  7.806785E-16 -5.928126E-15
         1  10  6.476182E-12  6.485061E-12  2.000000E+01 -7.664709E-15 -3.512012E-15 -8.510822E-15
         1  11  6.493940E-12  6.484173E-12  2.000000E+01 -2.988977E-15 -5.078790E-15 -1.070461E-15
         1  12  6.422909E-12  6.414031E-12  2.000000E+01  3.504540E-15  2.112203E-15 -2.341026E-15
         1  13  6.507258E-12  6.507258E-12  2.000000E+01 -1.892105E-15  2.288060E-15 -4.366035E-15
         1  14  6.467303E-12  6.476182E-12  2.000000E+01 -5.062162E-16 -1.535364E-15 -1.250295E-15
         1  15  6.467303E-12  6.458425E-12  2.000000E+01  1.208368E-15 -7.685640E-15 -2.050747E-15
         1  16  6.418470E-12  6.418470E-12  2.000000E+01  1.042455E-15  5.365087E-15 -5.816103E-15
         1  17  6.467303E-12  6.476182E-12  2.000000E+01 -1.024229E-15 -2.106558E-15 -8.930523E-15
         1  18  6.507258E-12  6.507258E-12  2.000000E+01 -1.749829E-15 -6.680923E-16  3.332291E-15
         1  19  6.435340E-12  6.435340E-12  2.000000E+01 -2.004488E-15  1.077809E-14 -1.007048E-14
         1  20  6.489500E-12  6.489500E-12  2.000000E+01  4.435224E-15  7.877543E-15 -1.600591E-15
         1  21  6.462864E-12  6.462864E-12  2.000000E+01  1.260383E-14 -1.149467E-14 -8.952101E-15
         1  22  6.493940E-12  6.484173E-12  2.000000E+01 -9.020712E-18 -6.732206E-15 -6.251462E-15
         1  23  6.493052E-12  6.502819E-12  2.000000E+01  7.773596E-16 -2.781713E-15 -9.437859E-15
         1  24  6.430900E-12  6.422022E-12  2.000000E+01  3.247201E-15  9.999031E-15 -1.042548E-14
         1  25  6.507258E-12  6.469967E-12  2.000000E+01  7.366630E-15  5.711864E-15  3.483838E-15
         1  26  6.435340E-12  6.435340E-12  2.000000E+01 -2.273680E-15 -9.332313E-15 -4.700002E-15
         1  27  6.471743E-12  6.471743E-12  2.000000E+01 -5.560939E-15 -8.411767E-15 -2.267703E-14

 displacements (vx,vy,vz) for set NALL and time  0.1000000E+01

         2  0.000000E+00  0.000000E+00  0.000000E+00
        10  8.544901E-05  0.000000E+00  0.000000E+00
        11  4.272450E-05  1.928944E-20  0.000000E+00
        12 -1.388671E-19 -4.272450E-05  0.000000E+00
        13 -3.697088E-19 -8.544901E-05  0.000000E+00
        33  4.644274E-19  7.694422E-20  1.831202E-04
        34  1.895080E-18  1.923489E-20  3.662403E-04
        93  8.544901E-05 -4.272450E-05  0.000000E+00
        95  8.544901E-05 -8.544901E-05  0.000000E+00
        96  4.272450E-05 -8.544901E-05  0.000000E+00
       103  8.544901E-05 -1.082099E-19  1.831202E-04
       105  8.544901E-05 -2.385389E-19  3.662403E-04
       106  4.272450E-05 -1.879141E-19  3.662403E-04
       132  6.465511E-20 -8.544901E-05  1.831202E-04
       133  1.645230E-18 -4.272450E-05  3.662403E-04
       134  1.401793E-18 -8.544901E-05  3.662403E-04
       219  8.544901E-05 -8.544901E-05  1.831202E-04
       220  8.544901E-05 -4.272450E-05  3.662403E-04
       222  8.544901E-05 -8.544901E-05  3.662403E-04
       223  4.272450E-05 -8.544901E-05  3.662403E-04

 forces (fx,fy,fz) for set NALL and time  0.1000000E+01

         2 -5.436861E-15  5.520705E-15  4.165243E-01
        10  5.466810E-15  5.425396E-15  4.165243E-01
        11 -4.863164E-17 -2.317275E-14 -1.666097E+00
        12  2.329677E-14 -1.445120E-15 -1.666097E+00
        13 -4.036500E-15 -5.067065E-15  4.165243E-01
        33  2.224170E-14 -2.205963E-14  2.027709E-15
        34 -6.425543E-15  6.723144E-15 -4.165243E-01
        93 -2.337734E-14  8.991120E-16 -1.666097E+00
        95  6.858302E-15 -6.419588E-15  4.165243E-01
        96 -3.125946E-15  2.418077E-14 -1.666097E+00
       103 -2.126341E-14 -2.133811E-14  2.408461E-15
       105  4.594017E-15  5.506534E-15 -4.165243E-01
       106  2.003723E-15 -2.179896E-14  1.666097E+00
       132  2.225455E-14  2.240287E-14  2.829686E-15
       133  1.988556E-14 -2.299635E-15  1.666097E+00
       134 -5.158609E-15 -4.723350E-15 -4.165243E-01
       219 -2.262230E-14  2.330078E-14 -2.551890E-15
       220 -2.059022E-14 -2.976243E-16  1.666097E+00
       222  5.657671E-15 -6.546216E-15 -4.165243E-01
       223 -1.737317E-16  2.120874E-14  1.666097E+00

 stresses (elem, integ.pnt.,sxx,syy,szz,sxy,sxz,syz) for set EALL and time  0.1000000E+01

         1   1  1.163088E-13  1.260752E-13  2.000000E+01 -7.265867E-15 -3.710919E-15 -5.464219E-15
         1   2  1.864492E-13  1.775707E-13  2.000000E+01 -4.669963E-16 -4.604093E-15 -3.623293E-15
         1   3  1.118695E-13  1.305144E-13  2.000000E+01 -2.211143E-15 -3.950809E-15  5.791215E-15
         1   4  1.092059E-13  9.943956E-14  2.000000E+01  9.203547E-16 -1.475441E-15  3.165358E-15
         1   5  1.473836E-13  1.473836E-13  2.000000E+01  1.226658E-15 -2.816262E-15  1.113470E-15
         1   6  1.784585E-13  1.695800E-13  2.000000E+01 -3.057382E-15 -8.536796E-15  3.681556E-15
         1   7  1.775707E-13  1.864492E-13  2.000000E+01  2.675451E-15 -8.561349E-15 -6.516120E-15
         1   8  1.260752E-13  1.349537E-13  2.000000E+01  2.463874E-15 -8.704093E-15  7.520777E-15
         1   9  1.695800E-13  1.598136E-13  2.000000E+01 -3.653123E-15  5.271126E-15  1.158928E-15
         1  10  1.216359E-13  1.216359E-13  2.000000E+01  1.136752E-15 -4.873427E-15 -2.615720E-14
         1  11  1.438322E-13  1.349537E-13  2.000000E+01 -8.369761E-16  6.503195E-16  4.903436E-15
         1  12  7.635538E-14  9.411244E-14  2.000000E+01 -1.901095E-15  1.553805E-14  3.475549E-15
         1  13  1.349537E-13  1.438322E-13  2.000000E+01 -2.356066E-15  1.269925E-14 -1.013474E-14
         1  14  1.553743E-13  1.553743E-13  2.000000E+01 -3.686167E-15 -2.116171E-15 -6.976367E-15
         1  15  1.216359E-13  1.216359E-13  2.000000E+01 -3.962447E-15  2.142801E-14  2.660674E-15
         1  16  6.836470E-14  8.612177E-14  2.000000E+01 -3.791338E-15  3.147506E-14 -3.751673E-14
         1  17  1.216359E-13  1.216359E-13  2.000000E+01 -4.024973E-15 -2.982705E-16  5.887190E-15
         1  18  1.651407E-13  1.651407E-13  2.000000E+01 -3.381290E-15  1.189552E-14  1.546209E-14
         1  19  1.163088E-13  1.260752E-13  2.000000E+01  1.022150E-14 -1.798466E-14  1.805227E-15
         1  20  1.260752E-13  1.349537E-13  2.000000E+01 -4.926973E-15  6.565108E-15 -1.266535E-14
         1  21  1.260752E-13  1.163088E-13  2.000000E+01 -8.949222E-15  1.232550E-14 -4.459774E-15
         1  22  1.092059E-13  9.943956E-14  2.000000E+01 -3.360902E-15  8.485026E-17 -7.346897E-16
         1  23  1.216359E-13  1.216359E-13  2.000000E+01 -6.201475E-15 -2.367336E-15 -2.123054E-17
         1  24  7.280397E-14  1.003274E-13  2.000000E+01  3.767655E-16 -6.005768E-14 -2.151797E-14
         1  25  1.615893E-13  1.518229E-13  2.000000E+01  5.378260E-15  3.173846E-14 -4.474219E-14
         1  26  1.651407E-13  1.464958E-13  2.000000E+01 -3.164848E-15 -1.281052E-14 -3.666341E-14
         1  27  1.038788E-13  1.225237E-13  2.000000E+01  2.194391E-14 -6.330184E-15  3.805371E-14
