    1C
    1UModel: beam     Date: 10-Mar-1998                                 
    1UUSER                                                              
    1UDATE              25.january.2020                                 
    1UTIME              14:47:07                                        
    1UHOST                                                              
    1UPGM               CalculiX                                        
    1UVERSION           Version 2.16                             
    1UCOMPILETIME       Tue  7 Jan 19:57:43 CET 2020                    
    1UDIR                                                               
    1UDBN                                                               
    1UMAT    1EL                                                        
    2C                           261                                     1
 -1         1 0.00000E+00 0.00000E+00 0.00000E+00
 -1         2 1.00000E+00 0.00000E+00 0.00000E+00
 -1         3 1.00000E+00 1.00000E+00 0.00000E+00
 -1         4 0.00000E+00 1.00000E+00 0.00000E+00
 -1         5 0.00000E+00 0.00000E+00 8.00000E+00
 -1         6 1.00000E+00 0.00000E+00 8.00000E+00
 -1         7 1.00000E+00 1.00000E+00 8.00000E+00
 -1         8 0.00000E+00 1.00000E+00 8.00000E+00
 -1         9 2.50000E-01 0.00000E+00 0.00000E+00
 -1        10 5.00000E-01 0.00000E+00 0.00000E+00
 -1        11 7.50000E-01 0.00000E+00 0.00000E+00
 -1        12 1.00000E+00 2.50000E-01 0.00000E+00
 -1        13 1.00000E+00 5.00000E-01 0.00000E+00
 -1        14 1.00000E+00 7.50000E-01 0.00000E+00
 -1        15 7.50000E-01 1.00000E+00 0.00000E+00
 -1        16 5.00000E-01 1.00000E+00 0.00000E+00
 -1        17 2.50000E-01 1.00000E+00 0.00000E+00
 -1        18 0.00000E+00 7.50000E-01 0.00000E+00
 -1        19 0.00000E+00 5.00000E-01 0.00000E+00
 -1        20 0.00000E+00 2.50000E-01 0.00000E+00
 -1        21 2.50000E-01 0.00000E+00 8.00000E+00
 -1        22 5.00000E-01 0.00000E+00 8.00000E+00
 -1        23 7.50000E-01 0.00000E+00 8.00000E+00
 -1        24 1.00000E+00 2.50000E-01 8.00000E+00
 -1        25 1.00000E+00 5.00000E-01 8.00000E+00
 -1        26 1.00000E+00 7.50000E-01 8.00000E+00
 -1        27 7.50000E-01 1.00000E+00 8.00000E+00
 -1        28 5.00000E-01 1.00000E+00 8.00000E+00
 -1        29 2.50000E-01 1.00000E+00 8.00000E+00
 -1        30 0.00000E+00 7.50000E-01 8.00000E+00
 -1        31 0.00000E+00 5.00000E-01 8.00000E+00
 -1        32 0.00000E+00 2.50000E-01 8.00000E+00
 -1        33 1.00000E+00 0.00000E+00 5.00000E-01
 -1        34 1.00000E+00 0.00000E+00 1.00000E+00
 -1        35 1.00000E+00 0.00000E+00 1.50000E+00
 -1        36 1.00000E+00 0.00000E+00 2.00000E+00
 -1        37 1.00000E+00 0.00000E+00 2.50000E+00
 -1        38 1.00000E+00 0.00000E+00 3.00000E+00
 -1        39 1.00000E+00 0.00000E+00 3.50000E+00
 -1        40 1.00000E+00 0.00000E+00 4.00000E+00
 -1        41 1.00000E+00 0.00000E+00 4.50000E+00
 -1        42 1.00000E+00 0.00000E+00 5.00000E+00
 -1        43 1.00000E+00 0.00000E+00 5.50000E+00
 -1        44 1.00000E+00 0.00000E+00 6.00000E+00
 -1        45 1.00000E+00 0.00000E+00 6.50000E+00
 -1        46 1.00000E+00 0.00000E+00 7.00000E+00
 -1        47 1.00000E+00 0.00000E+00 7.50000E+00
 -1        48 0.00000E+00 0.00000E+00 7.50000E+00
 -1        49 0.00000E+00 0.00000E+00 7.00000E+00
 -1        50 0.00000E+00 0.00000E+00 6.50000E+00
 -1        51 0.00000E+00 0.00000E+00 6.00000E+00
 -1        52 0.00000E+00 0.00000E+00 5.50000E+00
 -1        53 0.00000E+00 0.00000E+00 5.00000E+00
 -1        54 0.00000E+00 0.00000E+00 4.50000E+00
 -1        55 0.00000E+00 0.00000E+00 4.00000E+00
 -1        56 0.00000E+00 0.00000E+00 3.50000E+00
 -1        57 0.00000E+00 0.00000E+00 3.00000E+00
 -1        58 0.00000E+00 0.00000E+00 2.50000E+00
 -1        59 0.00000E+00 0.00000E+00 2.00000E+00
 -1        60 0.00000E+00 0.00000E+00 1.50000E+00
 -1        61 0.00000E+00 0.00000E+00 1.00000E+00
 -1        62 0.00000E+00 0.00000E+00 5.00000E-01
 -1        63 1.00000E+00 1.00000E+00 5.00000E-01
 -1        64 1.00000E+00 1.00000E+00 1.00000E+00
 -1        65 1.00000E+00 1.00000E+00 1.50000E+00
 -1        66 1.00000E+00 1.00000E+00 2.00000E+00
 -1        67 1.00000E+00 1.00000E+00 2.50000E+00
 -1        68 1.00000E+00 1.00000E+00 3.00000E+00
 -1        69 1.00000E+00 1.00000E+00 3.50000E+00
 -1        70 1.00000E+00 1.00000E+00 4.00000E+00
 -1        71 1.00000E+00 1.00000E+00 4.50000E+00
 -1        72 1.00000E+00 1.00000E+00 5.00000E+00
 -1        73 1.00000E+00 1.00000E+00 5.50000E+00
 -1        74 1.00000E+00 1.00000E+00 6.00000E+00
 -1        75 1.00000E+00 1.00000E+00 6.50000E+00
 -1        76 1.00000E+00 1.00000E+00 7.00000E+00
 -1        77 1.00000E+00 1.00000E+00 7.50000E+00
 -1        78 0.00000E+00 1.00000E+00 5.00000E-01
 -1        79 0.00000E+00 1.00000E+00 1.00000E+00
 -1        80 0.00000E+00 1.00000E+00 1.50000E+00
 -1        81 0.00000E+00 1.00000E+00 2.00000E+00
 -1        82 0.00000E+00 1.00000E+00 2.50000E+00
 -1        83 0.00000E+00 1.00000E+00 3.00000E+00
 -1        84 0.00000E+00 1.00000E+00 3.50000E+00
 -1        85 0.00000E+00 1.00000E+00 4.00000E+00
 -1        86 0.00000E+00 1.00000E+00 4.50000E+00
 -1        87 0.00000E+00 1.00000E+00 5.00000E+00
 -1        88 0.00000E+00 1.00000E+00 5.50000E+00
 -1        89 0.00000E+00 1.00000E+00 6.00000E+00
 -1        90 0.00000E+00 1.00000E+00 6.50000E+00
 -1        91 0.00000E+00 1.00000E+00 7.00000E+00
 -1        92 0.00000E+00 1.00000E+00 7.50000E+00
 -1        93 5.00000E-01 2.50000E-01 0.00000E+00
 -1        94 2.50000E-01 5.00000E-01 0.00000E+00
 -1        95 5.00000E-01 5.00000E-01 0.00000E+00
 -1        96 7.50000E-01 5.00000E-01 0.00000E+00
 -1        97 5.00000E-01 7.50000E-01 0.00000E+00
 -1        98 5.00000E-01 2.50000E-01 8.00000E+00
 -1        99 2.50000E-01 5.00000E-01 8.00000E+00
 -1       100 5.00000E-01 5.00000E-01 8.00000E+00
 -1       101 7.50000E-01 5.00000E-01 8.00000E+00
 -1       102 5.00000E-01 7.50000E-01 8.00000E+00
 -1       103 5.00000E-01 0.00000E+00 5.00000E-01
 -1       104 2.50000E-01 0.00000E+00 1.00000E+00
 -1       105 5.00000E-01 0.00000E+00 1.00000E+00
 -1       106 7.50000E-01 0.00000E+00 1.00000E+00
 -1       107 5.00000E-01 0.00000E+00 1.50000E+00
 -1       108 2.50000E-01 0.00000E+00 2.00000E+00
 -1       109 5.00000E-01 0.00000E+00 2.00000E+00
 -1       110 7.50000E-01 0.00000E+00 2.00000E+00
 -1       111 5.00000E-01 0.00000E+00 2.50000E+00
 -1       112 2.50000E-01 0.00000E+00 3.00000E+00
 -1       113 5.00000E-01 0.00000E+00 3.00000E+00
 -1       114 7.50000E-01 0.00000E+00 3.00000E+00
 -1       115 5.00000E-01 0.00000E+00 3.50000E+00
 -1       116 2.50000E-01 0.00000E+00 4.00000E+00
 -1       117 5.00000E-01 0.00000E+00 4.00000E+00
 -1       118 7.50000E-01 0.00000E+00 4.00000E+00
 -1       119 5.00000E-01 0.00000E+00 4.50000E+00
 -1       120 2.50000E-01 0.00000E+00 5.00000E+00
 -1       121 5.00000E-01 0.00000E+00 5.00000E+00
 -1       122 7.50000E-01 0.00000E+00 5.00000E+00
 -1       123 5.00000E-01 0.00000E+00 5.50000E+00
 -1       124 2.50000E-01 0.00000E+00 6.00000E+00
 -1       125 5.00000E-01 0.00000E+00 6.00000E+00
 -1       126 7.50000E-01 0.00000E+00 6.00000E+00
 -1       127 5.00000E-01 0.00000E+00 6.50000E+00
 -1       128 2.50000E-01 0.00000E+00 7.00000E+00
 -1       129 5.00000E-01 0.00000E+00 7.00000E+00
 -1       130 7.50000E-01 0.00000E+00 7.00000E+00
 -1       131 5.00000E-01 0.00000E+00 7.50000E+00
 -1       132 1.00000E+00 5.00000E-01 5.00000E-01
 -1       133 1.00000E+00 2.50000E-01 1.00000E+00
 -1       134 1.00000E+00 5.00000E-01 1.00000E+00
 -1       135 1.00000E+00 7.50000E-01 1.00000E+00
 -1       136 1.00000E+00 5.00000E-01 1.50000E+00
 -1       137 1.00000E+00 2.50000E-01 2.00000E+00
 -1       138 1.00000E+00 5.00000E-01 2.00000E+00
 -1       139 1.00000E+00 7.50000E-01 2.00000E+00
 -1       140 1.00000E+00 5.00000E-01 2.50000E+00
 -1       141 1.00000E+00 2.50000E-01 3.00000E+00
 -1       142 1.00000E+00 5.00000E-01 3.00000E+00
 -1       143 1.00000E+00 7.50000E-01 3.00000E+00
 -1       144 1.00000E+00 5.00000E-01 3.50000E+00
 -1       145 1.00000E+00 2.50000E-01 4.00000E+00
 -1       146 1.00000E+00 5.00000E-01 4.00000E+00
 -1       147 1.00000E+00 7.50000E-01 4.00000E+00
 -1       148 1.00000E+00 5.00000E-01 4.50000E+00
 -1       149 1.00000E+00 2.50000E-01 5.00000E+00
 -1       150 1.00000E+00 5.00000E-01 5.00000E+00
 -1       151 1.00000E+00 7.50000E-01 5.00000E+00
 -1       152 1.00000E+00 5.00000E-01 5.50000E+00
 -1       153 1.00000E+00 2.50000E-01 6.00000E+00
 -1       154 1.00000E+00 5.00000E-01 6.00000E+00
 -1       155 1.00000E+00 7.50000E-01 6.00000E+00
 -1       156 1.00000E+00 5.00000E-01 6.50000E+00
 -1       157 1.00000E+00 2.50000E-01 7.00000E+00
 -1       158 1.00000E+00 5.00000E-01 7.00000E+00
 -1       159 1.00000E+00 7.50000E-01 7.00000E+00
 -1       160 1.00000E+00 5.00000E-01 7.50000E+00
 -1       161 5.00000E-01 1.00000E+00 5.00000E-01
 -1       162 7.50000E-01 1.00000E+00 1.00000E+00
 -1       163 5.00000E-01 1.00000E+00 1.00000E+00
 -1       164 2.50000E-01 1.00000E+00 1.00000E+00
 -1       165 5.00000E-01 1.00000E+00 1.50000E+00
 -1       166 7.50000E-01 1.00000E+00 2.00000E+00
 -1       167 5.00000E-01 1.00000E+00 2.00000E+00
 -1       168 2.50000E-01 1.00000E+00 2.00000E+00
 -1       169 5.00000E-01 1.00000E+00 2.50000E+00
 -1       170 7.50000E-01 1.00000E+00 3.00000E+00
 -1       171 5.00000E-01 1.00000E+00 3.00000E+00
 -1       172 2.50000E-01 1.00000E+00 3.00000E+00
 -1       173 5.00000E-01 1.00000E+00 3.50000E+00
 -1       174 7.50000E-01 1.00000E+00 4.00000E+00
 -1       175 5.00000E-01 1.00000E+00 4.00000E+00
 -1       176 2.50000E-01 1.00000E+00 4.00000E+00
 -1       177 5.00000E-01 1.00000E+00 4.50000E+00
 -1       178 7.50000E-01 1.00000E+00 5.00000E+00
 -1       179 5.00000E-01 1.00000E+00 5.00000E+00
 -1       180 2.50000E-01 1.00000E+00 5.00000E+00
 -1       181 5.00000E-01 1.00000E+00 5.50000E+00
 -1       182 7.50000E-01 1.00000E+00 6.00000E+00
 -1       183 5.00000E-01 1.00000E+00 6.00000E+00
 -1       184 2.50000E-01 1.00000E+00 6.00000E+00
 -1       185 5.00000E-01 1.00000E+00 6.50000E+00
 -1       186 7.50000E-01 1.00000E+00 7.00000E+00
 -1       187 5.00000E-01 1.00000E+00 7.00000E+00
 -1       188 2.50000E-01 1.00000E+00 7.00000E+00
 -1       189 5.00000E-01 1.00000E+00 7.50000E+00
 -1       190 0.00000E+00 5.00000E-01 5.00000E-01
 -1       191 0.00000E+00 7.50000E-01 1.00000E+00
 -1       192 0.00000E+00 5.00000E-01 1.00000E+00
 -1       193 0.00000E+00 2.50000E-01 1.00000E+00
 -1       194 0.00000E+00 5.00000E-01 1.50000E+00
 -1       195 0.00000E+00 7.50000E-01 2.00000E+00
 -1       196 0.00000E+00 5.00000E-01 2.00000E+00
 -1       197 0.00000E+00 2.50000E-01 2.00000E+00
 -1       198 0.00000E+00 5.00000E-01 2.50000E+00
 -1       199 0.00000E+00 7.50000E-01 3.00000E+00
 -1       200 0.00000E+00 5.00000E-01 3.00000E+00
 -1       201 0.00000E+00 2.50000E-01 3.00000E+00
 -1       202 0.00000E+00 5.00000E-01 3.50000E+00
 -1       203 0.00000E+00 7.50000E-01 4.00000E+00
 -1       204 0.00000E+00 5.00000E-01 4.00000E+00
 -1       205 0.00000E+00 2.50000E-01 4.00000E+00
 -1       206 0.00000E+00 5.00000E-01 4.50000E+00
 -1       207 0.00000E+00 7.50000E-01 5.00000E+00
 -1       208 0.00000E+00 5.00000E-01 5.00000E+00
 -1       209 0.00000E+00 2.50000E-01 5.00000E+00
 -1       210 0.00000E+00 5.00000E-01 5.50000E+00
 -1       211 0.00000E+00 7.50000E-01 6.00000E+00
 -1       212 0.00000E+00 5.00000E-01 6.00000E+00
 -1       213 0.00000E+00 2.50000E-01 6.00000E+00
 -1       214 0.00000E+00 5.00000E-01 6.50000E+00
 -1       215 0.00000E+00 7.50000E-01 7.00000E+00
 -1       216 0.00000E+00 5.00000E-01 7.00000E+00
 -1       217 0.00000E+00 2.50000E-01 7.00000E+00
 -1       218 0.00000E+00 5.00000E-01 7.50000E+00
 -1       219 5.00000E-01 5.00000E-01 5.00000E-01
 -1       220 5.00000E-01 2.50000E-01 1.00000E+00
 -1       221 2.50000E-01 5.00000E-01 1.00000E+00
 -1       222 5.00000E-01 5.00000E-01 1.00000E+00
 -1       223 7.50000E-01 5.00000E-01 1.00000E+00
 -1       224 5.00000E-01 7.50000E-01 1.00000E+00
 -1       225 5.00000E-01 5.00000E-01 1.50000E+00
 -1       226 5.00000E-01 2.50000E-01 2.00000E+00
 -1       227 2.50000E-01 5.00000E-01 2.00000E+00
 -1       228 5.00000E-01 5.00000E-01 2.00000E+00
 -1       229 7.50000E-01 5.00000E-01 2.00000E+00
 -1       230 5.00000E-01 7.50000E-01 2.00000E+00
 -1       231 5.00000E-01 5.00000E-01 2.50000E+00
 -1       232 5.00000E-01 2.50000E-01 3.00000E+00
 -1       233 2.50000E-01 5.00000E-01 3.00000E+00
 -1       234 5.00000E-01 5.00000E-01 3.00000E+00
 -1       235 7.50000E-01 5.00000E-01 3.00000E+00
 -1       236 5.00000E-01 7.50000E-01 3.00000E+00
 -1       237 5.00000E-01 5.00000E-01 3.50000E+00
 -1       238 5.00000E-01 2.50000E-01 4.00000E+00
 -1       239 2.50000E-01 5.00000E-01 4.00000E+00
 -1       240 5.00000E-01 5.00000E-01 4.00000E+00
 -1       241 7.50000E-01 5.00000E-01 4.00000E+00
 -1       242 5.00000E-01 7.50000E-01 4.00000E+00
 -1       243 5.00000E-01 5.00000E-01 4.50000E+00
 -1       244 5.00000E-01 2.50000E-01 5.00000E+00
 -1       245 2.50000E-01 5.00000E-01 5.00000E+00
 -1       246 5.00000E-01 5.00000E-01 5.00000E+00
 -1       247 7.50000E-01 5.00000E-01 5.00000E+00
 -1       248 5.00000E-01 7.50000E-01 5.00000E+00
 -1       249 5.00000E-01 5.00000E-01 5.50000E+00
 -1       250 5.00000E-01 2.50000E-01 6.00000E+00
 -1       251 2.50000E-01 5.00000E-01 6.00000E+00
 -1       252 5.00000E-01 5.00000E-01 6.00000E+00
 -1       253 7.50000E-01 5.00000E-01 6.00000E+00
 -1       254 5.00000E-01 7.50000E-01 6.00000E+00
 -1       255 5.00000E-01 5.00000E-01 6.50000E+00
 -1       256 5.00000E-01 2.50000E-01 7.00000E+00
 -1       257 2.50000E-01 5.00000E-01 7.00000E+00
 -1       258 5.00000E-01 5.00000E-01 7.00000E+00
 -1       259 7.50000E-01 5.00000E-01 7.00000E+00
 -1       260 5.00000E-01 7.50000E-01 7.00000E+00
 -1       261 5.00000E-01 5.00000E-01 7.50000E+00
 -3
    3C                            32                                     1
 -1         1    4    0    1
 -2         1        10        95        19        61       105       222       192         9        93
 -2        94        20        62       103       219       190       104       220       221       193
 -1         2    4    0    1
 -2        10         2        13        95       105        34       134       222        11        12
 -2        96        93       103        33       132       219       106       133       223       220
 -1         3    4    0    1
 -2        19        95        16         4       192       222       163        79        94        97
 -2        17        18       190       219       161        78       221       224       164       191
 -1         4    4    0    1
 -2        95        13         3        16       222       134        64       163        96        14
 -2        15        97       219       132        63       161       223       135       162       224
 -1         5    4    0    1
 -2        61       105       222       192        59       109       228       196       104       220
 -2       221       193        60       107       225       194       108       226       227       197
 -1         6    4    0    1
 -2       105        34       134       222       109        36       138       228       106       133
 -2       223       220       107        35       136       225       110       137       229       226
 -1         7    4    0    1
 -2       192       222       163        79       196       228       167        81       221       224
 -2       164       191       194       225       165        80       227       230       168       195
 -1         8    4    0    1
 -2       222       134        64       163       228       138        66       167       223       135
 -2       162       224       225       136        65       165       229       139       166       230
 -1         9    4    0    1
 -2        59       109       228       196        57       113       234       200       108       226
 -2       227       197        58       111       231       198       112       232       233       201
 -1        10    4    0    1
 -2       109        36       138       228       113        38       142       234       110       137
 -2       229       226       111        37       140       231       114       141       235       232
 -1        11    4    0    1
 -2       196       228       167        81       200       234       171        83       227       230
 -2       168       195       198       231       169        82       233       236       172       199
 -1        12    4    0    1
 -2       228       138        66       167       234       142        68       171       229       139
 -2       166       230       231       140        67       169       235       143       170       236
 -1        13    4    0    1
 -2        57       113       234       200        55       117       240       204       112       232
 -2       233       201        56       115       237       202       116       238       239       205
 -1        14    4    0    1
 -2       113        38       142       234       117        40       146       240       114       141
 -2       235       232       115        39       144       237       118       145       241       238
 -1        15    4    0    1
 -2       200       234       171        83       204       240       175        85       233       236
 -2       172       199       202       237       173        84       239       242       176       203
 -1        16    4    0    1
 -2       234       142        68       171       240       146        70       175       235       143
 -2       170       236       237       144        69       173       241       147       174       242
 -1        17    4    0    1
 -2        55       117       240       204        53       121       246       208       116       238
 -2       239       205        54       119       243       206       120       244       245       209
 -1        18    4    0    1
 -2       117        40       146       240       121        42       150       246       118       145
 -2       241       238       119        41       148       243       122       149       247       244
 -1        19    4    0    1
 -2       204       240       175        85       208       246       179        87       239       242
 -2       176       203       206       243       177        86       245       248       180       207
 -1        20    4    0    1
 -2       240       146        70       175       246       150        72       179       241       147
 -2       174       242       243       148        71       177       247       151       178       248
 -1        21    4    0    1
 -2        53       121       246       208        51       125       252       212       120       244
 -2       245       209        52       123       249       210       124       250       251       213
 -1        22    4    0    1
 -2       121        42       150       246       125        44       154       252       122       149
 -2       247       244       123        43       152       249       126       153       253       250
 -1        23    4    0    1
 -2       208       246       179        87       212       252       183        89       245       248
 -2       180       207       210       249       181        88       251       254       184       211
 -1        24    4    0    1
 -2       246       150        72       179       252       154        74       183       247       151
 -2       178       248       249       152        73       181       253       155       182       254
 -1        25    4    0    1
 -2        51       125       252       212        49       129       258       216       124       250
 -2       251       213        50       127       255       214       128       256       257       217
 -1        26    4    0    1
 -2       125        44       154       252       129        46       158       258       126       153
 -2       253       250       127        45       156       255       130       157       259       256
 -1        27    4    0    1
 -2       212       252       183        89       216       258       187        91       251       254
 -2       184       211       214       255       185        90       257       260       188       215
 -1        28    4    0    1
 -2       252       154        74       183       258       158        76       187       253       155
 -2       182       254       255       156        75       185       259       159       186       260
 -1        29    4    0    1
 -2        49       129       258       216         5        22       100        31       128       256
 -2       257       217        48       131       261       218        21        98        99        32
 -1        30    4    0    1
 -2       129        46       158       258        22         6        25       100       130       157
 -2       259       256       131        47       160       261        23        24       101        98
 -1        31    4    0    1
 -2       216       258       187        91        31       100        28         8       257       260
 -2       188       215       218       261       189        92        99       102        29        30
 -1        32    4    0    1
 -2       258       158        76       187       100        25         7        28       259       159
 -2       186       260       261       160        77       189       101        26        27       102
 -3
    1PSTEP                         1           1           3          
  100CL  115 3.000000000         261                     0   15           1
 -4  DISP        4    1
 -5  D1          1    2    1    0
 -5  D2          1    2    2    0
 -5  D3          1    2    3    0
 -5  ALL         1    2    0    0    1ALL
 -1         1-9.24325E-07 5.00070E-01 5.00006E-01
 -1         2 9.24325E-07 5.00070E-01 5.00006E-01
 -1         3 9.24325E-07-4.99930E-01-5.00006E-01
 -1         4-9.24325E-07-4.99930E-01-5.00006E-01
 -1         5 3.91774E-05 8.50047E+00-7.50004E+00
 -1         6-3.91774E-05 8.50047E+00-7.50004E+00
 -1         7-3.91774E-05 7.50047E+00-8.49996E+00
 -1         8 3.91774E-05 7.50047E+00-8.49996E+00
 -1         9 2.35501E-07 5.00070E-01 5.00013E-01
 -1        10 3.91985E-16 5.00071E-01 5.00013E-01
 -1        11-2.35501E-07 5.00070E-01 5.00013E-01
 -1        12-4.58757E-06 2.50044E-01 2.50000E-01
 -1        13 0.00000E+00 0.00000E+00 0.00000E+00
 -1        14-4.58757E-06-2.49956E-01-2.50000E-01
 -1        15-2.35501E-07-4.99930E-01-5.00013E-01
 -1        16 8.60361E-17-4.99929E-01-5.00013E-01
 -1        17 2.35501E-07-4.99930E-01-5.00013E-01
 -1        18 4.58757E-06-2.49956E-01-2.50000E-01
 -1        19 0.00000E+00 0.00000E+00 0.00000E+00
 -1        20 4.58757E-06 2.50044E-01 2.50000E-01
 -1        21 1.63771E-05 8.50040E+00-7.50003E+00
 -1        22 1.21793E-15 8.50039E+00-7.50001E+00
 -1        23-1.63771E-05 8.50040E+00-7.50003E+00
 -1        24-2.61347E-05 8.25040E+00-7.75002E+00
 -1        25-1.00478E-05 8.00039E+00-8.00000E+00
 -1        26-2.61347E-05 7.75040E+00-8.24998E+00
 -1        27-1.63771E-05 7.50040E+00-8.49997E+00
 -1        28 7.13636E-16 7.50039E+00-8.49999E+00
 -1        29 1.63771E-05 7.50040E+00-8.49997E+00
 -1        30 2.61347E-05 7.75040E+00-8.24998E+00
 -1        31 1.00478E-05 8.00039E+00-8.00000E+00
 -1        32 2.61347E-05 8.25040E+00-7.75002E+00
 -1        33-9.03979E-08 1.00006E+00-1.60152E-05
 -1        34-9.87640E-06 1.50009E+00-5.00001E-01
 -1        35-6.46615E-06 2.00010E+00-1.00001E+00
 -1        36-6.52710E-06 2.50013E+00-1.50001E+00
 -1        37-6.28575E-06 3.00015E+00-2.00001E+00
 -1        38-6.64274E-06 3.50017E+00-2.50001E+00
 -1        39-6.37507E-06 4.00019E+00-3.00001E+00
 -1        40-6.61701E-06 4.50021E+00-3.50001E+00
 -1        41-6.35582E-06 5.00023E+00-4.00001E+00
 -1        42-6.97480E-06 5.50025E+00-4.50001E+00
 -1        43-5.79650E-06 6.00028E+00-5.00001E+00
 -1        44-8.72135E-06 6.50030E+00-5.50001E+00
 -1        45-5.70751E-06 7.00032E+00-6.00001E+00
 -1        46-1.42960E-05 7.50033E+00-6.50001E+00
 -1        47 4.08208E-06 8.00038E+00-7.00000E+00
 -1        48-4.08208E-06 8.00038E+00-7.00000E+00
 -1        49 1.42960E-05 7.50033E+00-6.50001E+00
 -1        50 5.70751E-06 7.00032E+00-6.00001E+00
 -1        51 8.72135E-06 6.50030E+00-5.50001E+00
 -1        52 5.79650E-06 6.00028E+00-5.00001E+00
 -1        53 6.97480E-06 5.50025E+00-4.50001E+00
 -1        54 6.35582E-06 5.00023E+00-4.00001E+00
 -1        55 6.61701E-06 4.50021E+00-3.50001E+00
 -1        56 6.37507E-06 4.00019E+00-3.00001E+00
 -1        57 6.64274E-06 3.50017E+00-2.50001E+00
 -1        58 6.28575E-06 3.00015E+00-2.00001E+00
 -1        59 6.52710E-06 2.50013E+00-1.50001E+00
 -1        60 6.46615E-06 2.00010E+00-1.00001E+00
 -1        61 9.87640E-06 1.50009E+00-5.00001E-01
 -1        62 9.03979E-08 1.00006E+00-1.60152E-05
 -1        63-9.03979E-08 6.23513E-05-9.99984E-01
 -1        64-9.87640E-06 5.00086E-01-1.50000E+00
 -1        65-6.46615E-06 1.00011E+00-1.99999E+00
 -1        66-6.52710E-06 1.50013E+00-2.49999E+00
 -1        67-6.28575E-06 2.00015E+00-2.99999E+00
 -1        68-6.64274E-06 2.50017E+00-3.49999E+00
 -1        69-6.37507E-06 3.00019E+00-3.99999E+00
 -1        70-6.61701E-06 3.50021E+00-4.49999E+00
 -1        71-6.35582E-06 4.00023E+00-4.99999E+00
 -1        72-6.97480E-06 4.50025E+00-5.49999E+00
 -1        73-5.79650E-06 5.00028E+00-5.99999E+00
 -1        74-8.72135E-06 5.50030E+00-6.49999E+00
 -1        75-5.70751E-06 6.00032E+00-6.99999E+00
 -1        76-1.42960E-05 6.50033E+00-7.49999E+00
 -1        77 4.08208E-06 7.00038E+00-8.00000E+00
 -1        78 9.03979E-08 6.23513E-05-9.99984E-01
 -1        79 9.87640E-06 5.00086E-01-1.50000E+00
 -1        80 6.46615E-06 1.00011E+00-1.99999E+00
 -1        81 6.52710E-06 1.50013E+00-2.49999E+00
 -1        82 6.28575E-06 2.00015E+00-2.99999E+00
 -1        83 6.64274E-06 2.50017E+00-3.49999E+00
 -1        84 6.37507E-06 3.00019E+00-3.99999E+00
 -1        85 6.61701E-06 3.50021E+00-4.49999E+00
 -1        86 6.35582E-06 4.00023E+00-4.99999E+00
 -1        87 6.97480E-06 4.50025E+00-5.49999E+00
 -1        88 5.79650E-06 5.00028E+00-5.99999E+00
 -1        89 8.72135E-06 5.50030E+00-6.49999E+00
 -1        90 5.70751E-06 6.00032E+00-6.99999E+00
 -1        91 1.42960E-05 6.50033E+00-7.49999E+00
 -1        92-4.08208E-06 7.00038E+00-8.00000E+00
 -1        93 2.41253E-16 2.50043E-01 2.50004E-01
 -1        94 0.00000E+00 0.00000E+00 0.00000E+00
 -1        95 0.00000E+00 0.00000E+00 0.00000E+00
 -1        96 0.00000E+00 0.00000E+00 0.00000E+00
 -1        97-1.82125E-17-2.49957E-01-2.50004E-01
 -1        98 6.61662E-16 8.25038E+00-7.75001E+00
 -1        99 5.81775E-06 8.00038E+00-8.00000E+00
 -1       100 0.00000E+00 8.00036E+00-8.00000E+00
 -1       101-5.81775E-06 8.00038E+00-8.00000E+00
 -1       102-1.08172E-16 7.75038E+00-8.24999E+00
 -1       103-9.00505E-17 1.00006E+00-1.28160E-05
 -1       104 4.80130E-06 1.50008E+00-5.00001E-01
 -1       105 2.77662E-16 1.50008E+00-5.00001E-01
 -1       106-4.80130E-06 1.50008E+00-5.00001E-01
 -1       107-6.76324E-16 2.00011E+00-1.00001E+00
 -1       108 3.31319E-06 2.50013E+00-1.50001E+00
 -1       109-7.27011E-16 2.50012E+00-1.50001E+00
 -1       110-3.31319E-06 2.50013E+00-1.50001E+00
 -1       111-1.56754E-15 3.00015E+00-2.00001E+00
 -1       112 3.31269E-06 3.50017E+00-2.50001E+00
 -1       113 2.76134E-16 3.50017E+00-2.50001E+00
 -1       114-3.31269E-06 3.50017E+00-2.50001E+00
 -1       115-1.59367E-15 4.00019E+00-3.00001E+00
 -1       116 3.30515E-06 4.50021E+00-3.50001E+00
 -1       117-6.67614E-17 4.50021E+00-3.50001E+00
 -1       118-3.30515E-06 4.50021E+00-3.50001E+00
 -1       119-1.46290E-15 5.00023E+00-4.00001E+00
 -1       120 3.51200E-06 5.50025E+00-4.50001E+00
 -1       121-2.74690E-15 5.50025E+00-4.50001E+00
 -1       122-3.51200E-06 5.50025E+00-4.50001E+00
 -1       123-9.80694E-16 6.00028E+00-5.00001E+00
 -1       124 4.28709E-06 6.50030E+00-5.50001E+00
 -1       125 5.53824E-16 6.50030E+00-5.50001E+00
 -1       126-4.28709E-06 6.50030E+00-5.50001E+00
 -1       127 6.21311E-16 7.00032E+00-6.00001E+00
 -1       128 7.34743E-06 7.50034E+00-6.50001E+00
 -1       129 2.09674E-15 7.50034E+00-6.50001E+00
 -1       130-7.34743E-06 7.50034E+00-6.50001E+00
 -1       131 9.70732E-16 8.00037E+00-7.00000E+00
 -1       132-1.02016E-05 5.00055E-01-5.00000E-01
 -1       133-5.04355E-06 1.25008E+00-7.50001E-01
 -1       134-2.34732E-06 1.00008E+00-1.00000E+00
 -1       135-5.04355E-06 7.50083E-01-1.25000E+00
 -1       136-7.38117E-06 1.50010E+00-1.50000E+00
 -1       137-6.12911E-06 2.25013E+00-1.75000E+00
 -1       138-5.19230E-06 2.00013E+00-2.00000E+00
 -1       139-6.12911E-06 1.75013E+00-2.25000E+00
 -1       140-6.59551E-06 2.50015E+00-2.50000E+00
 -1       141-6.36228E-06 3.25017E+00-2.75000E+00
 -1       142-6.23654E-06 3.00017E+00-3.00000E+00
 -1       143-6.36228E-06 2.75017E+00-3.25000E+00
 -1       144-6.46005E-06 3.50019E+00-3.50000E+00
 -1       145-6.45771E-06 4.25021E+00-3.75000E+00
 -1       146-6.22682E-06 4.00021E+00-4.00000E+00
 -1       147-6.45771E-06 3.75021E+00-4.25000E+00
 -1       148-6.60838E-06 4.50023E+00-4.50000E+00
 -1       149-6.49098E-06 5.25025E+00-4.75000E+00
 -1       150-6.12219E-06 5.00025E+00-5.00000E+00
 -1       151-6.49098E-06 4.75025E+00-5.25000E+00
 -1       152-6.45747E-06 5.50028E+00-5.50000E+00
 -1       153-7.20228E-06 6.25030E+00-5.75000E+00
 -1       154-5.33027E-06 6.00030E+00-6.00000E+00
 -1       155-7.20228E-06 5.75030E+00-6.25000E+00
 -1       156-7.87940E-06 6.50032E+00-6.50000E+00
 -1       157-1.00989E-05 7.25034E+00-6.75001E+00
 -1       158-6.86443E-06 7.00034E+00-7.00000E+00
 -1       159-1.00989E-05 6.75034E+00-7.24999E+00
 -1       160-1.92840E-06 7.50037E+00-7.50000E+00
 -1       161-1.00473E-16 6.23274E-05-9.99987E-01
 -1       162-4.80130E-06 5.00085E-01-1.50000E+00
 -1       163-6.98576E-17 5.00085E-01-1.50000E+00
 -1       164 4.80130E-06 5.00085E-01-1.50000E+00
 -1       165-2.84982E-16 1.00011E+00-1.99999E+00
 -1       166-3.31319E-06 1.50013E+00-2.49999E+00
 -1       167 7.98137E-17 1.50012E+00-2.49999E+00
 -1       168 3.31319E-06 1.50013E+00-2.49999E+00
 -1       169-3.45603E-16 2.00015E+00-2.99999E+00
 -1       170-3.31269E-06 2.50017E+00-3.49999E+00
 -1       171-2.91274E-16 2.50017E+00-3.49999E+00
 -1       172 3.31269E-06 2.50017E+00-3.49999E+00
 -1       173-1.05675E-15 3.00019E+00-3.99999E+00
 -1       174-3.30515E-06 3.50021E+00-4.49999E+00
 -1       175-1.14110E-16 3.50021E+00-4.49999E+00
 -1       176 3.30515E-06 3.50021E+00-4.49999E+00
 -1       177-3.08744E-16 4.00023E+00-4.99999E+00
 -1       178-3.51200E-06 4.50025E+00-5.49999E+00
 -1       179 1.06009E-15 4.50025E+00-5.49999E+00
 -1       180 3.51200E-06 4.50025E+00-5.49999E+00
 -1       181 2.56877E-15 5.00028E+00-5.99999E+00
 -1       182-4.28709E-06 5.50030E+00-6.49999E+00
 -1       183 3.07869E-15 5.50030E+00-6.49999E+00
 -1       184 4.28709E-06 5.50030E+00-6.49999E+00
 -1       185 5.33995E-15 6.00032E+00-6.99999E+00
 -1       186-7.34743E-06 6.50034E+00-7.49999E+00
 -1       187 3.24035E-15 6.50034E+00-7.49999E+00
 -1       188 7.34743E-06 6.50034E+00-7.49999E+00
 -1       189 2.30824E-15 7.00037E+00-8.00000E+00
 -1       190 1.02016E-05 5.00055E-01-5.00000E-01
 -1       191 5.04355E-06 7.50083E-01-1.25000E+00
 -1       192 2.34732E-06 1.00008E+00-1.00000E+00
 -1       193 5.04355E-06 1.25008E+00-7.50001E-01
 -1       194 7.38117E-06 1.50010E+00-1.50000E+00
 -1       195 6.12911E-06 1.75013E+00-2.25000E+00
 -1       196 5.19230E-06 2.00013E+00-2.00000E+00
 -1       197 6.12911E-06 2.25013E+00-1.75000E+00
 -1       198 6.59551E-06 2.50015E+00-2.50000E+00
 -1       199 6.36228E-06 2.75017E+00-3.25000E+00
 -1       200 6.23654E-06 3.00017E+00-3.00000E+00
 -1       201 6.36228E-06 3.25017E+00-2.75000E+00
 -1       202 6.46005E-06 3.50019E+00-3.50000E+00
 -1       203 6.45771E-06 3.75021E+00-4.25000E+00
 -1       204 6.22682E-06 4.00021E+00-4.00000E+00
 -1       205 6.45771E-06 4.25021E+00-3.75000E+00
 -1       206 6.60838E-06 4.50023E+00-4.50000E+00
 -1       207 6.49098E-06 4.75025E+00-5.25000E+00
 -1       208 6.12219E-06 5.00025E+00-5.00000E+00
 -1       209 6.49098E-06 5.25025E+00-4.75000E+00
 -1       210 6.45747E-06 5.50028E+00-5.50000E+00
 -1       211 7.20228E-06 5.75030E+00-6.25000E+00
 -1       212 5.33027E-06 6.00030E+00-6.00000E+00
 -1       213 7.20228E-06 6.25030E+00-5.75000E+00
 -1       214 7.87940E-06 6.50032E+00-6.50000E+00
 -1       215 1.00989E-05 6.75034E+00-7.24999E+00
 -1       216 6.86443E-06 7.00034E+00-7.00000E+00
 -1       217 1.00989E-05 7.25034E+00-6.75001E+00
 -1       218 1.92840E-06 7.50037E+00-7.50000E+00
 -1       219-7.26810E-17 5.00054E-01-5.00000E-01
 -1       220-9.83690E-18 1.25008E+00-7.50001E-01
 -1       221 1.27890E-06 1.00008E+00-1.00000E+00
 -1       222-1.06367E-16 1.00008E+00-1.00000E+00
 -1       223-1.27890E-06 1.00008E+00-1.00000E+00
 -1       224-2.65919E-16 7.50083E-01-1.25000E+00
 -1       225-5.48097E-16 1.50010E+00-1.50000E+00
 -1       226-7.41910E-16 2.25013E+00-1.75000E+00
 -1       227 2.54462E-06 2.00013E+00-2.00000E+00
 -1       228-6.43527E-16 2.00013E+00-2.00000E+00
 -1       229-2.54462E-06 2.00013E+00-2.00000E+00
 -1       230-4.69740E-16 1.75013E+00-2.25000E+00
 -1       231-9.45631E-16 2.50015E+00-2.50000E+00
 -1       232-6.01485E-16 3.25017E+00-2.75000E+00
 -1       233 3.12083E-06 3.00017E+00-3.00000E+00
 -1       234-1.74014E-15 3.00017E+00-3.00000E+00
 -1       235-3.12083E-06 3.00017E+00-3.00000E+00
 -1       236-8.95232E-16 2.75017E+00-3.25000E+00
 -1       237-1.08136E-15 3.50019E+00-3.50000E+00
 -1       238-1.04019E-15 4.25021E+00-3.75000E+00
 -1       239 3.13816E-06 4.00021E+00-4.00000E+00
 -1       240-1.49824E-15 4.00021E+00-4.00000E+00
 -1       241-3.13816E-06 4.00021E+00-4.00000E+00
 -1       242-6.13981E-16 3.75021E+00-4.25000E+00
 -1       243-1.10944E-15 4.50023E+00-4.50000E+00
 -1       244-1.65874E-15 5.25025E+00-4.75000E+00
 -1       245 2.97387E-06 5.00025E+00-5.00000E+00
 -1       246-1.70898E-15 5.00025E+00-5.00000E+00
 -1       247-2.97387E-06 5.00025E+00-5.00000E+00
 -1       248 1.34257E-16 4.75025E+00-5.25000E+00
 -1       249 9.77815E-16 5.50028E+00-5.50000E+00
 -1       250 7.45163E-16 6.25030E+00-5.75000E+00
 -1       251 2.94719E-06 6.00030E+00-6.00000E+00
 -1       252 2.03874E-15 6.00030E+00-6.00000E+00
 -1       253-2.94719E-06 6.00030E+00-6.00000E+00
 -1       254 2.56121E-15 5.75030E+00-6.25000E+00
 -1       255 2.16661E-15 6.50032E+00-6.50000E+00
 -1       256 1.18386E-15 7.25034E+00-6.75000E+00
 -1       257 2.70145E-06 7.00034E+00-7.00000E+00
 -1       258 6.64745E-16 7.00034E+00-7.00000E+00
 -1       259-2.70145E-06 7.00034E+00-7.00000E+00
 -1       260 1.98383E-15 6.75034E+00-7.25000E+00
 -1       261 1.22844E-15 7.50035E+00-7.50000E+00
 -3
    1PSTEP                         2           1           3          
  100CL  115 3.000000000         261                     0   15           1
 -4  STRESS      6    1
 -5  SXX         1    4    1    1
 -5  SYY         1    4    2    2
 -5  SZZ         1    4    3    3
 -5  SXY         1    4    1    2
 -5  SYZ         1    4    2    3
 -5  SZX         1    4    3    1
 -1         1-2.86373E+00-1.25064E+01-1.62353E+00-1.23303E+00-4.02961E+00-1.47493E+00
 -1         2-2.86373E+00-1.25064E+01-1.62353E+00 1.23303E+00-4.02961E+00 1.47493E+00
 -1         3-2.86373E+00-1.25064E+01-1.62353E+00 1.23303E+00 4.02961E+00-1.47493E+00
 -1         4-2.86373E+00-1.25064E+01-1.62353E+00-1.23303E+00 4.02961E+00 1.47493E+00
 -1         5-4.26992E+00 3.55277E+01-4.26991E+00-1.57569E+01 1.57568E+01 1.34751E+00
 -1         6-4.26992E+00 3.55277E+01-4.26991E+00 1.57569E+01 1.57568E+01-1.34751E+00
 -1         7-4.26992E+00 3.55277E+01-4.26991E+00 1.57569E+01-1.57568E+01 1.34751E+00
 -1         8-4.26992E+00 3.55277E+01-4.26991E+00-1.57569E+01-1.57568E+01-1.34751E+00
 -1         9-3.78708E+00-1.27473E+01-5.53243E-01-4.71276E-01-3.66489E+00-1.20913E+00
 -1        10-4.71043E+00-1.29883E+01 5.17041E-01 1.32100E-10-3.30017E+00-3.08223E-11
 -1        11-3.78708E+00-1.27473E+01-5.53243E-01 4.71276E-01-3.66489E+00 1.20913E+00
 -1        12 1.71820E+00 8.70616E+00 1.30202E+00-6.57261E-01 4.99516E+00-1.38380E-01
 -1        13 6.30014E+00 2.99187E+01 4.22756E+00-2.54755E+00-1.13383E-10 3.81880E-11
 -1        14 1.71820E+00 8.70616E+00 1.30202E+00-6.57261E-01-4.99516E+00 1.38380E-01
 -1        15-3.78708E+00-1.27473E+01-5.53243E-01 4.71276E-01 3.66489E+00-1.20913E+00
 -1        16-4.71043E+00-1.29883E+01 5.17041E-01-5.46015E-11 3.30017E+00-1.00704E-10
 -1        17-3.78708E+00-1.27473E+01-5.53243E-01-4.71276E-01 3.66489E+00 1.20913E+00
 -1        18 1.71820E+00 8.70616E+00 1.30202E+00 6.57261E-01-4.99516E+00-1.38380E-01
 -1        19 6.30014E+00 2.99187E+01 4.22756E+00 2.54755E+00-5.94245E-11 9.88210E-12
 -1        20 1.71820E+00 8.70616E+00 1.30202E+00 6.57261E-01 4.99516E+00 1.38380E-01
 -1        21-3.71351E+00 1.83124E+01-3.18611E+00-1.45246E+00 7.77472E+00 1.77914E+00
 -1        22-3.15709E+00 1.09718E+00-2.10230E+00 1.05268E-09-2.07309E-01-2.45004E-10
 -1        23-3.71351E+00 1.83124E+01-3.18611E+00 1.45246E+00 7.77472E+00-1.77914E+00
 -1        24-3.18629E+00 1.83126E+01-3.71358E+00 7.77498E+00 1.45253E+00-1.77921E+00
 -1        25-2.10265E+00 1.09745E+00-3.15725E+00-2.06932E-01 9.09761E-11 1.36961E-09
 -1        26-3.18629E+00 1.83126E+01-3.71358E+00 7.77498E+00-1.45253E+00 1.77921E+00
 -1        27-3.71351E+00 1.83124E+01-3.18611E+00 1.45246E+00-7.77472E+00 1.77914E+00
 -1        28-3.15709E+00 1.09718E+00-2.10230E+00-1.02696E-09 2.07309E-01-2.39688E-09
 -1        29-3.71351E+00 1.83124E+01-3.18611E+00-1.45246E+00-7.77472E+00-1.77914E+00
 -1        30-3.18629E+00 1.83126E+01-3.71358E+00-7.77498E+00-1.45253E+00-1.77921E+00
 -1        31-2.10265E+00 1.09745E+00-3.15725E+00 2.06932E-01 4.08236E-10-1.02531E-09
 -1        32-3.18629E+00 1.83126E+01-3.71358E+00-7.77498E+00 1.45253E+00 1.77921E+00
 -1        33-5.36650E-01 1.41132E+00-7.39890E-01-1.83365E-01-5.84685E-02 7.14014E-01
 -1        34 7.05957E-01 1.20904E+01 1.00340E+00-3.29010E-01 1.99313E+00-4.37467E-01
 -1        35-1.52974E-01 8.81192E+00 4.12347E-01 2.38467E-01 1.89363E-01-1.98965E-01
 -1        36 7.01820E-02 8.92186E+00-5.25789E-01-1.95463E-01-1.05712E-02 1.94266E-01
 -1        37 3.57906E-02 9.02357E+00 1.05435E-02-1.82876E-02-1.50594E-01 5.63941E-03
 -1        38 1.20814E-02 9.00386E+00 5.43262E-02-1.92896E-02 7.09841E-02 7.62704E-03
 -1        39-2.84093E-02 8.97908E+00-1.52748E-02 4.30323E-02 6.30314E-02-1.49863E-02
 -1        40 1.15785E-02 9.03739E+00-6.84297E-03 1.33061E-01 1.21260E-01 5.28941E-02
 -1        41-3.42744E-02 8.95607E+00-3.62060E-02-1.79487E-01-1.86655E-01-4.19446E-02
 -1        42 3.60224E-01 9.24759E+00 3.63950E-01-2.49260E-01-2.45015E-01 2.41522E-02
 -1        43-1.64262E-01 8.88179E+00-1.63961E-01 4.20017E-01 4.21841E-01 1.87804E-02
 -1        44 2.72141E-02 9.18671E+00 2.62994E-02 1.90620E+00 1.90522E+00 3.24198E-01
 -1        45-5.17576E-01 8.99540E+00-5.17534E-01-2.31221E+00-2.31276E+00-3.74049E-01
 -1        46 1.80540E+00 5.57104E+00 1.80553E+00-4.05354E+00-4.05321E+00 2.09682E-01
 -1        47 8.24161E-01 1.95103E+01 8.24132E-01 7.67950E+00 7.67960E+00 3.30568E-01
 -1        48 8.24161E-01 1.95103E+01 8.24132E-01-7.67950E+00 7.67960E+00-3.30568E-01
 -1        49 1.80540E+00 5.57104E+00 1.80553E+00 4.05354E+00-4.05321E+00-2.09682E-01
 -1        50-5.17576E-01 8.99540E+00-5.17534E-01 2.31221E+00-2.31276E+00 3.74049E-01
 -1        51 2.72141E-02 9.18671E+00 2.62994E-02-1.90620E+00 1.90522E+00-3.24198E-01
 -1        52-1.64262E-01 8.88179E+00-1.63961E-01-4.20017E-01 4.21841E-01-1.87804E-02
 -1        53 3.60224E-01 9.24759E+00 3.63950E-01 2.49260E-01-2.45015E-01-2.41522E-02
 -1        54-3.42744E-02 8.95607E+00-3.62060E-02 1.79487E-01-1.86655E-01 4.19446E-02
 -1        55 1.15785E-02 9.03739E+00-6.84297E-03-1.33061E-01 1.21260E-01-5.28941E-02
 -1        56-2.84093E-02 8.97908E+00-1.52748E-02-4.30323E-02 6.30314E-02 1.49863E-02
 -1        57 1.20814E-02 9.00386E+00 5.43262E-02 1.92896E-02 7.09841E-02-7.62704E-03
 -1        58 3.57906E-02 9.02357E+00 1.05435E-02 1.82876E-02-1.50594E-01-5.63941E-03
 -1        59 7.01820E-02 8.92186E+00-5.25789E-01 1.95463E-01-1.05712E-02-1.94266E-01
 -1        60-1.52974E-01 8.81192E+00 4.12347E-01-2.38467E-01 1.89363E-01 1.98965E-01
 -1        61 7.05957E-01 1.20904E+01 1.00340E+00 3.29010E-01 1.99313E+00 4.37467E-01
 -1        62-5.36650E-01 1.41132E+00-7.39890E-01 1.83365E-01-5.84685E-02-7.14014E-01
 -1        63-5.36650E-01 1.41132E+00-7.39890E-01-1.83365E-01 5.84685E-02-7.14014E-01
 -1        64 7.05957E-01 1.20904E+01 1.00340E+00-3.29010E-01-1.99313E+00 4.37467E-01
 -1        65-1.52974E-01 8.81192E+00 4.12347E-01 2.38467E-01-1.89363E-01 1.98965E-01
 -1        66 7.01820E-02 8.92186E+00-5.25789E-01-1.95463E-01 1.05712E-02-1.94266E-01
 -1        67 3.57906E-02 9.02357E+00 1.05435E-02-1.82876E-02 1.50594E-01-5.63941E-03
 -1        68 1.20814E-02 9.00386E+00 5.43262E-02-1.92896E-02-7.09841E-02-7.62704E-03
 -1        69-2.84093E-02 8.97908E+00-1.52748E-02 4.30323E-02-6.30314E-02 1.49863E-02
 -1        70 1.15785E-02 9.03739E+00-6.84297E-03 1.33061E-01-1.21260E-01-5.28941E-02
 -1        71-3.42744E-02 8.95607E+00-3.62060E-02-1.79487E-01 1.86655E-01 4.19446E-02
 -1        72 3.60224E-01 9.24759E+00 3.63950E-01-2.49260E-01 2.45015E-01-2.41522E-02
 -1        73-1.64262E-01 8.88179E+00-1.63961E-01 4.20017E-01-4.21841E-01-1.87804E-02
 -1        74 2.72141E-02 9.18671E+00 2.62994E-02 1.90620E+00-1.90522E+00-3.24198E-01
 -1        75-5.17576E-01 8.99540E+00-5.17534E-01-2.31221E+00 2.31276E+00 3.74049E-01
 -1        76 1.80540E+00 5.57104E+00 1.80553E+00-4.05354E+00 4.05321E+00-2.09682E-01
 -1        77 8.24161E-01 1.95103E+01 8.24132E-01 7.67950E+00-7.67960E+00-3.30568E-01
 -1        78-5.36650E-01 1.41132E+00-7.39890E-01 1.83365E-01 5.84685E-02 7.14014E-01
 -1        79 7.05957E-01 1.20904E+01 1.00340E+00 3.29010E-01-1.99313E+00-4.37467E-01
 -1        80-1.52974E-01 8.81192E+00 4.12347E-01-2.38467E-01-1.89363E-01-1.98965E-01
 -1        81 7.01820E-02 8.92186E+00-5.25789E-01 1.95463E-01 1.05712E-02 1.94266E-01
 -1        82 3.57906E-02 9.02357E+00 1.05435E-02 1.82876E-02 1.50594E-01 5.63941E-03
 -1        83 1.20814E-02 9.00386E+00 5.43262E-02 1.92896E-02-7.09841E-02 7.62704E-03
 -1        84-2.84093E-02 8.97908E+00-1.52748E-02-4.30323E-02-6.30314E-02-1.49863E-02
 -1        85 1.15785E-02 9.03739E+00-6.84297E-03-1.33061E-01-1.21260E-01 5.28941E-02
 -1        86-3.42744E-02 8.95607E+00-3.62060E-02 1.79487E-01 1.86655E-01-4.19446E-02
 -1        87 3.60224E-01 9.24759E+00 3.63950E-01 2.49260E-01 2.45015E-01 2.41522E-02
 -1        88-1.64262E-01 8.88179E+00-1.63961E-01-4.20017E-01-4.21841E-01 1.87804E-02
 -1        89 2.72141E-02 9.18671E+00 2.62994E-02-1.90620E+00-1.90522E+00 3.24198E-01
 -1        90-5.17576E-01 8.99540E+00-5.17534E-01 2.31221E+00 2.31276E+00-3.74049E-01
 -1        91 1.80540E+00 5.57104E+00 1.80553E+00 4.05354E+00 4.05321E+00 2.09682E-01
 -1        92 8.24161E-01 1.95103E+01 8.24132E-01-7.67950E+00-7.67960E+00 3.30568E-01
 -1        93 1.65663E+00 9.29473E+00 4.41528E+00 7.37420E-11 4.94597E+00-2.44913E-11
 -1        94 7.16191E+00 3.07482E+01 6.27054E+00 1.15876E+00 7.20286E-11 4.25179E-11
 -1        95 8.02369E+00 3.15777E+01 8.31352E+00 6.01215E-11 1.66959E-10 2.31999E-11
 -1        96 7.16191E+00 3.07482E+01 6.27054E+00-1.15876E+00 8.52651E-12 4.71712E-12
 -1        97 1.65663E+00 9.29473E+00 4.41528E+00 2.51289E-11-4.94597E+00-1.80716E-11
 -1        98-4.91252E+00-3.10648E-01-4.38520E+00 4.51811E-10-7.61894E-03-6.72535E-11
 -1        99-4.38530E+00-3.10515E-01-4.91267E+00 7.69386E-03 2.97097E-10 5.70612E-11
 -1       100-6.66795E+00-1.71848E+00-6.66810E+00 7.74995E-11 2.15547E-10 7.55849E-10
 -1       101-4.38530E+00-3.10515E-01-4.91267E+00-7.69386E-03 1.68057E-10 8.70935E-10
 -1       102-4.91252E+00-3.10648E-01-4.38520E+00-3.61447E-10 7.61894E-03-4.97840E-10
 -1       103-1.28856E+00 1.22775E+00 7.77182E-02-8.78540E-11-1.16101E-01 2.71687E-11
 -1       104 9.16827E-01 1.22836E+01 7.46480E-01 1.98637E-01 1.73203E+00 2.93567E-01
 -1       105 1.12770E+00 1.24768E+01 4.89562E-01-1.97315E-10 1.47094E+00-3.35739E-12
 -1       106 9.16827E-01 1.22836E+01 7.46480E-01-1.98637E-01 1.73203E+00-2.93567E-01
 -1       107-9.42271E-02 8.81389E+00 1.17574E-01-1.70276E-12 2.67812E-01-2.71679E-11
 -1       108-9.96195E-03 8.84335E+00-4.36490E-01 7.22039E-02 3.04683E-03-1.10184E-01
 -1       109-9.01059E-02 8.76484E+00-3.47191E-01-2.29231E-10 1.66648E-02-3.95879E-13
 -1       110-9.96195E-03 8.84335E+00-4.36490E-01-7.22039E-02 3.04683E-03 1.10184E-01
 -1       111 2.22094E-02 9.10037E+00 1.17838E-01-1.17331E-11-1.88151E-01 6.15782E-11
 -1       112-1.19142E-02 8.95163E+00-2.20349E-02 4.28060E-03 1.00422E-01-3.77703E-03
 -1       113-3.59099E-02 8.89940E+00-9.83960E-02 2.19482E-10 1.29860E-01-4.19918E-11
 -1       114-1.19142E-02 8.95163E+00-2.20349E-02-4.28060E-03 1.00422E-01 3.77703E-03
 -1       115 1.94013E-02 9.02653E+00 2.92535E-02-7.84459E-12 4.52792E-02-5.26128E-11
 -1       116 1.00765E-02 8.99791E+00 8.81831E-03-1.56660E-02 4.35287E-02-2.94393E-02
 -1       117 8.57457E-03 8.95844E+00 2.44796E-02 3.44932E-10-3.42025E-02-2.57010E-10
 -1       118 1.00765E-02 8.99791E+00 8.81831E-03 1.56660E-02 4.35287E-02 2.94393E-02
 -1       119-6.52010E-02 9.00870E+00-7.29901E-02-5.04437E-10-1.89269E-02-4.62841E-10
 -1       120 1.72062E-01 9.04846E+00 7.35689E-02-7.79042E-02-1.59927E-01-4.60737E-02
 -1       121-1.61013E-02 8.84934E+00-2.16812E-01-1.24695E-09-7.48388E-02-4.32256E-10
 -1       122 1.72062E-01 9.04846E+00 7.35689E-02 7.79042E-02-1.59927E-01 4.60737E-02
 -1       123 1.42765E-01 9.14582E+00 3.21091E-01-3.39693E-10 1.19317E-01 9.82851E-12
 -1       124 2.42032E-01 9.15075E+00 3.66226E-01-1.97100E-01 9.72635E-01-1.49076E-01
 -1       125 4.56851E-01 9.11479E+00 7.06153E-01-5.90639E-11 4.00504E-02 1.25912E-10
 -1       126 2.42032E-01 9.15075E+00 3.66226E-01 1.97100E-01 9.72635E-01 1.49076E-01
 -1       127-1.02157E+00 8.61729E+00-1.11467E+00-2.88765E-10-2.77486E-01 2.35390E-10
 -1       128 1.99224E+00 7.98360E+00 1.13306E+00-9.22069E-02-1.74708E+00-4.17923E-01
 -1       129 2.17909E+00 1.03962E+01 4.60590E-01-1.09751E-09 5.59049E-01 4.16404E-10
 -1       130 1.99224E+00 7.98360E+00 1.13306E+00 9.22069E-02-1.74708E+00 4.17923E-01
 -1       131 1.98153E+00 6.57383E+00 7.49944E-01-4.31235E-10 5.22036E-01-1.21951E-10
 -1       132 9.21295E-01 1.60433E+01-1.33721E+00 1.47290E-01-2.40714E-11-3.20287E-11
 -1       133-3.20215E-01 8.95757E+00-8.55864E-01 1.39440E-01-2.64137E-01 2.48291E-02
 -1       134-1.34639E+00 5.82477E+00-2.71513E+00 6.07890E-01-1.49863E-10-1.70850E-10
 -1       135-3.20215E-01 8.95757E+00-8.55864E-01 1.39440E-01 2.64137E-01-2.48291E-02
 -1       136 4.08053E-01 9.24692E+00 2.38649E-01-3.30117E-01-1.23319E-11-8.52262E-11
 -1       137-1.47608E-01 8.97733E+00-4.35346E-01 6.77519E-02 1.39774E-01 7.76689E-02
 -1       138-3.65399E-01 9.03280E+00-3.44902E-01 3.30967E-01 4.16157E-10-4.76790E-11
 -1       139-1.47608E-01 8.97733E+00-4.35346E-01 6.77519E-02-1.39774E-01-7.76689E-02
 -1       140 6.27470E-03 8.97157E+00 9.88125E-02-4.14957E-02 2.68199E-10-1.24199E-10
 -1       141-2.99378E-02 8.98176E+00 8.67117E-03 1.42175E-02 1.00189E-02 3.95596E-02
 -1       142-7.19570E-02 8.95967E+00-3.69838E-02 4.77245E-02-1.31872E-11-1.56682E-10
 -1       143-2.99378E-02 8.98176E+00 8.67117E-03 1.42175E-02-1.00189E-02-3.95596E-02
 -1       144 6.69303E-02 9.04330E+00 2.16434E-02-4.87205E-03 4.32315E-10 1.56024E-10
 -1       145 1.17641E-02 8.99886E+00-2.86920E-03 6.55603E-02 1.95556E-02 2.36573E-02
 -1       146 1.19497E-02 8.96033E+00 1.10457E-03-1.94018E-03 1.12714E-09-1.84329E-11
 -1       147 1.17641E-02 8.99886E+00-2.86920E-03 6.55603E-02-1.95556E-02-2.36573E-02
 -1       148-8.30240E-02 9.00213E+00-6.46255E-02-5.84421E-03-3.25589E-11-1.44563E-10
 -1       149 7.29073E-02 9.04837E+00 1.74911E-01-1.66034E-01 7.73399E-02 4.80152E-02
 -1       150-2.14410E-01 8.84915E+00-1.41278E-02-8.28080E-02-9.32565E-10 4.07435E-10
 -1       151 7.29073E-02 9.04837E+00 1.74911E-01-1.66034E-01-7.73399E-02-4.80152E-02
 -1       152 3.24455E-01 9.14776E+00 1.43230E-01 1.15233E-01-4.82875E-10 3.32758E-10
 -1       153 3.66110E-01 9.15080E+00 2.41073E-01 9.74460E-01 1.97391E-01 1.48634E-01
 -1       154 7.05006E-01 9.11489E+00 4.55846E-01 4.27169E-02 2.96251E-10 1.87686E-10
 -1       155 3.66110E-01 9.15080E+00 2.41073E-01 9.74460E-01-1.97391E-01-1.48634E-01
 -1       156-1.11563E+00 8.61671E+00-1.02172E+00-2.76405E-01 1.85390E-10 4.90413E-10
 -1       157 1.13319E+00 7.98358E+00 1.99246E+00-1.74762E+00 9.21196E-02 4.18062E-01
 -1       158 4.60986E-01 1.03961E+01 2.17939E+00 5.58288E-01 3.05635E-10-1.75096E-10
 -1       159 1.13319E+00 7.98358E+00 1.99246E+00-1.74762E+00-9.21196E-02-4.18062E-01
 -1       160 7.50176E-01 6.57411E+00 1.98158E+00 5.21806E-01 7.04295E-10 1.37100E-10
 -1       161-1.28856E+00 1.22775E+00 7.77182E-02 1.08968E-13 1.16101E-01-1.51923E-10
 -1       162 9.16827E-01 1.22836E+01 7.46480E-01-1.98637E-01-1.73203E+00 2.93567E-01
 -1       163 1.12770E+00 1.24768E+01 4.89562E-01-5.19491E-11-1.47094E+00-2.47672E-10
 -1       164 9.16827E-01 1.22836E+01 7.46480E-01 1.98637E-01-1.73203E+00-2.93567E-01
 -1       165-9.42271E-02 8.81389E+00 1.17574E-01 4.43348E-11-2.67812E-01-4.90149E-10
 -1       166-9.96195E-03 8.84335E+00-4.36490E-01-7.22039E-02-3.04683E-03-1.10184E-01
 -1       167-9.01059E-02 8.76484E+00-3.47191E-01 2.23060E-10-1.66648E-02-6.26211E-10
 -1       168-9.96195E-03 8.84335E+00-4.36490E-01 7.22039E-02-3.04683E-03 1.10184E-01
 -1       169 2.22094E-02 9.10037E+00 1.17838E-01 1.69949E-10 1.88151E-01-4.01634E-10
 -1       170-1.19142E-02 8.95163E+00-2.20349E-02-4.28060E-03-1.00422E-01-3.77703E-03
 -1       171-3.59099E-02 8.89940E+00-9.83959E-02 1.93010E-10-1.29860E-01-2.09519E-10
 -1       172-1.19142E-02 8.95163E+00-2.20349E-02 4.28060E-03-1.00422E-01 3.77703E-03
 -1       173 1.94013E-02 9.02653E+00 2.92536E-02 3.16156E-10-4.52792E-02-1.04438E-11
 -1       174 1.00765E-02 8.99791E+00 8.81831E-03 1.56660E-02-4.35287E-02-2.94393E-02
 -1       175 8.57457E-03 8.95844E+00 2.44796E-02 6.79771E-11 3.42025E-02 9.87199E-11
 -1       176 1.00765E-02 8.99791E+00 8.81831E-03-1.56660E-02-4.35287E-02 2.94393E-02
 -1       177-6.52010E-02 9.00870E+00-7.29901E-02-1.48151E-10 1.89269E-02 2.72825E-10
 -1       178 1.72062E-01 9.04846E+00 7.35689E-02 7.79042E-02 1.59927E-01-4.60737E-02
 -1       179-1.61013E-02 8.84934E+00-2.16812E-01 5.08369E-10 7.48388E-02-2.26112E-10
 -1       180 1.72062E-01 9.04846E+00 7.35689E-02-7.79042E-02 1.59927E-01 4.60737E-02
 -1       181 1.42765E-01 9.14582E+00 3.21091E-01 4.02613E-10-1.19317E-01-5.57417E-10
 -1       182 2.42032E-01 9.15075E+00 3.66226E-01 1.97100E-01-9.72635E-01-1.49076E-01
 -1       183 4.56851E-01 9.11479E+00 7.06153E-01-2.08208E-11-4.00504E-02-3.68848E-10
 -1       184 2.42032E-01 9.15075E+00 3.66226E-01-1.97100E-01-9.72635E-01 1.49076E-01
 -1       185-1.02157E+00 8.61729E+00-1.11467E+00 2.64160E-10 2.77486E-01-1.53149E-10
 -1       186 1.99224E+00 7.98360E+00 1.13306E+00 9.22069E-02 1.74708E+00-4.17923E-01
 -1       187 2.17909E+00 1.03962E+01 4.60590E-01 3.94176E-10-5.59049E-01 7.66326E-10
 -1       188 1.99224E+00 7.98360E+00 1.13306E+00-9.22069E-02 1.74708E+00 4.17923E-01
 -1       189 1.98153E+00 6.57383E+00 7.49944E-01-2.76127E-10-5.22036E-01-5.70217E-10
 -1       190 9.21295E-01 1.60433E+01-1.33721E+00-1.47290E-01-2.14753E-11-6.43208E-13
 -1       191-3.20215E-01 8.95757E+00-8.55864E-01-1.39440E-01 2.64137E-01 2.48291E-02
 -1       192-1.34639E+00 5.82477E+00-2.71513E+00-6.07890E-01-3.22510E-11 2.97489E-11
 -1       193-3.20215E-01 8.95757E+00-8.55864E-01-1.39440E-01-2.64137E-01-2.48291E-02
 -1       194 4.08053E-01 9.24692E+00 2.38649E-01 3.30117E-01 7.89553E-11-8.96091E-11
 -1       195-1.47608E-01 8.97733E+00-4.35346E-01-6.77519E-02-1.39774E-01 7.76689E-02
 -1       196-3.65399E-01 9.03280E+00-3.44902E-01-3.30967E-01 5.32105E-11-6.91088E-11
 -1       197-1.47608E-01 8.97733E+00-4.35346E-01-6.77519E-02 1.39774E-01-7.76689E-02
 -1       198 6.27470E-03 8.97157E+00 9.88125E-02 4.14957E-02 5.39839E-11-3.38240E-10
 -1       199-2.99378E-02 8.98176E+00 8.67117E-03-1.42175E-02-1.00189E-02 3.95596E-02
 -1       200-7.19570E-02 8.95967E+00-3.69838E-02-4.77245E-02 4.81198E-10-4.25169E-10
 -1       201-2.99378E-02 8.98176E+00 8.67117E-03-1.42175E-02 1.00189E-02-3.95596E-02
 -1       202 6.69303E-02 9.04330E+00 2.16434E-02 4.87205E-03 3.74494E-10-4.74273E-10
 -1       203 1.17641E-02 8.99886E+00-2.86920E-03-6.55603E-02-1.95556E-02 2.36573E-02
 -1       204 1.19497E-02 8.96033E+00 1.10457E-03 1.94018E-03 2.84198E-10 3.03529E-10
 -1       205 1.17641E-02 8.99886E+00-2.86920E-03-6.55603E-02 1.95556E-02-2.36573E-02
 -1       206-8.30240E-02 9.00213E+00-6.46255E-02 5.84421E-03 4.95176E-10 6.76777E-10
 -1       207 7.29073E-02 9.04837E+00 1.74911E-01 1.66034E-01-7.73399E-02 4.80152E-02
 -1       208-2.14410E-01 8.84915E+00-1.41278E-02 8.28080E-02 6.92686E-10 9.41494E-10
 -1       209 7.29073E-02 9.04837E+00 1.74911E-01 1.66034E-01 7.73399E-02-4.80152E-02
 -1       210 3.24455E-01 9.14776E+00 1.43230E-01-1.15233E-01 5.30015E-10 1.82457E-10
 -1       211 3.66110E-01 9.15080E+00 2.41073E-01-9.74460E-01-1.97391E-01 1.48634E-01
 -1       212 7.05006E-01 9.11489E+00 4.55846E-01-4.27169E-02-7.14528E-10-1.80192E-10
 -1       213 3.66110E-01 9.15080E+00 2.41073E-01-9.74460E-01 1.97391E-01-1.48634E-01
 -1       214-1.11563E+00 8.61671E+00-1.02172E+00 2.76405E-01-5.78405E-10 4.88212E-10
 -1       215 1.13319E+00 7.98358E+00 1.99246E+00 1.74762E+00-9.21196E-02 4.18062E-01
 -1       216 4.60986E-01 1.03961E+01 2.17939E+00-5.58288E-01 2.56841E-10 5.20549E-10
 -1       217 1.13319E+00 7.98358E+00 1.99246E+00 1.74762E+00 9.21196E-02-4.18062E-01
 -1       218 7.50176E-01 6.57411E+00 1.98158E+00-5.21806E-01 2.63017E-10 1.68455E-10
 -1       219 1.79293E+00 1.73181E+01 8.82783E-01-7.42852E-12 4.55920E-11 3.12049E-11
 -1       220-3.55623E-01 9.04205E+00-1.23565E+00-1.34069E-10-5.55379E-01-4.93370E-12
 -1       221-1.59267E+00 5.71606E+00-2.83799E+00-3.88464E-01-3.15777E-11-1.60440E-11
 -1       222-1.83894E+00 5.60735E+00-2.96086E+00-1.05395E-10 1.03667E-10 2.52690E-11
 -1       223-1.59267E+00 5.71606E+00-2.83799E+00 3.88464E-01 4.41873E-11-2.92375E-11
 -1       224-3.55623E-01 9.04205E+00-1.23565E+00-9.59584E-11 5.55379E-01-9.53121E-11
 -1       225 2.20980E-01 9.12673E+00 3.60230E-02 3.53925E-11 8.00843E-11 2.20661E-10
 -1       226-8.69975E-02 9.02244E+00-2.89022E-01 8.29014E-11 1.67290E-01 8.76523E-11
 -1       227-2.24644E-01 9.15642E+00-2.87877E-01-1.23707E-01 6.94653E-11 9.93920E-12
 -1       228-8.38892E-02 9.28004E+00-2.30853E-01 2.38301E-10 5.66388E-11 2.56170E-10
 -1       229-2.24644E-01 9.15642E+00-2.87877E-01 1.23707E-01 2.21857E-10 1.87837E-10
 -1       230-8.69975E-02 9.02244E+00-2.89022E-01 1.52314E-10-1.67290E-01-1.44785E-10
 -1       231 6.31396E-02 8.90396E+00 8.17344E-02 5.90227E-11-6.34746E-11 1.58735E-10
 -1       232-1.96117E-02 9.01798E+00-2.73797E-02 8.46783E-12 2.63307E-02 1.06166E-10
 -1       233-3.76352E-02 9.04811E+00 3.32638E-03-3.93169E-02 9.31235E-11-1.67398E-10
 -1       234-3.31344E-03 9.13656E+00 4.36366E-02 8.22801E-12-1.67053E-10 4.19600E-11
 -1       235-3.76352E-02 9.04811E+00 3.32638E-03 3.93169E-02-2.61709E-11-8.15670E-11
 -1       236-1.96117E-02 9.01798E+00-2.73797E-02 2.06006E-10-2.63307E-02-1.89961E-10
 -1       237-2.21957E-02 8.95057E+00-2.97962E-02-1.18972E-10 1.19182E-11 9.86456E-11
 -1       238-3.14462E-02 9.00088E+00-2.91386E-02 1.09011E-11-1.41294E-02 2.02362E-10
 -1       239-2.97586E-02 9.00183E+00-4.08262E-02 1.60936E-02 1.30879E-10 4.96081E-10
 -1       240-7.14669E-02 9.04333E+00-8.27569E-02-2.20699E-10-8.81810E-11 4.15096E-10
 -1       241-2.97586E-02 9.00183E+00-4.08262E-02-1.60936E-02 4.86607E-10 6.15632E-11
 -1       242-3.14462E-02 9.00088E+00-2.91386E-02-2.51459E-11 1.41294E-02 1.33589E-10
 -1       243 7.19245E-02 9.03260E+00 7.15344E-02-3.84462E-10 7.79218E-11-1.59634E-10
 -1       244 9.59419E-02 8.95136E+00-2.03606E-03-6.41339E-10-8.85480E-03-1.71401E-10
 -1       245-3.21228E-03 8.95127E+00 9.93061E-02 7.66915E-03 2.21342E-10 8.72337E-11
 -1       246 2.07985E-01 9.05339E+00 2.12740E-01-3.52894E-10-2.65243E-10-2.85351E-10
 -1       247-3.21228E-03 8.95127E+00 9.93061E-02-7.66915E-03-6.06525E-10 3.01880E-10
 -1       248 9.59419E-02 8.95136E+00-2.03606E-03-8.08446E-11 8.85480E-03-4.43134E-10
 -1       249-2.04105E-01 8.82411E+00-2.04061E-01 1.74473E-10 8.62618E-11 1.52512E-10
 -1       250-1.56825E-01 8.84891E+00-3.28581E-02 1.62693E-10-5.43040E-02 6.76872E-11
 -1       251-3.27478E-02 8.84896E+00-1.58012E-01 5.45096E-02 1.95746E-12 1.06024E-11
 -1       252-7.70501E-01 8.58303E+00-7.71870E-01 1.21498E-10 9.05394E-10 1.34791E-10
 -1       253-3.27478E-02 8.84896E+00-1.58012E-01-5.45096E-02 6.94298E-10 1.27936E-10
 -1       254-1.56825E-01 8.84891E+00-3.28581E-02-8.11377E-11 5.43040E-02-5.43637E-11
 -1       255 4.15299E-01 9.77033E+00 4.15183E-01 5.76622E-11 5.80618E-10-5.38360E-10
 -1       256 2.54270E+00 1.00158E+01 1.68366E+00-2.37246E-10 4.73124E-01-8.22549E-11
 -1       257 1.68364E+00 1.00158E+01 2.54306E+00-4.73222E-01 5.44011E-10-2.24233E-10
 -1       258 2.90630E+00 9.63540E+00 2.90673E+00 2.90795E-10 5.23081E-10-6.89272E-10
 -1       259 1.68364E+00 1.00158E+01 2.54306E+00 4.73222E-01 2.60308E-10-2.92312E-10
 -1       260 2.54270E+00 1.00158E+01 1.68366E+00 1.76372E-10-4.73124E-01-1.56516E-11
 -1       261-1.31393E+00 3.34229E+00-1.31392E+00 2.32955E-10 4.40635E-10 3.24425E-10
 -3
 9999
