    1C
    1UModel: beam     Date: 10-Mar-1998                                 
    1UUSER                                                              
    1UDATE              25.january.2020                                 
    1UTIME              14:45:20                                        
    1UHOST                                                              
    1UPGM               CalculiX                                        
    1UVERSION           Version 2.16                             
    1UCOMPILETIME       Tue  7 Jan 19:57:43 CET 2020                    
    1UDIR                                                               
    1UDBN                                                               
    1UMAT    1EL                                                        
    2C                            81                                     1
 -1         1 0.00000E+00 0.00000E+00 0.00000E+00
 -1         2 1.00000E+00 0.00000E+00 0.00000E+00
 -1         3 1.00000E+00 1.50000E+00 0.00000E+00
 -1         4 0.00000E+00 1.50000E+00 0.00000E+00
 -1         5 0.00000E+00 0.00000E+00 8.00000E+00
 -1         6 1.00000E+00 0.00000E+00 8.00000E+00
 -1         7 1.00000E+00 1.50000E+00 8.00000E+00
 -1         8 0.00000E+00 1.50000E+00 8.00000E+00
 -1        10 5.00000E-01 0.00000E+00 0.00000E+00
 -1        13 1.00000E+00 7.50000E-01 0.00000E+00
 -1        16 5.00000E-01 1.50000E+00 0.00000E+00
 -1        19 0.00000E+00 7.50000E-01 0.00000E+00
 -1        22 5.00000E-01 0.00000E+00 8.00000E+00
 -1        25 1.00000E+00 7.50000E-01 8.00000E+00
 -1        28 5.00000E-01 1.50000E+00 8.00000E+00
 -1        31 0.00000E+00 7.50000E-01 8.00000E+00
 -1        34 1.00000E+00 0.00000E+00 1.00000E+00
 -1        36 1.00000E+00 0.00000E+00 2.00000E+00
 -1        38 1.00000E+00 0.00000E+00 3.00000E+00
 -1        40 1.00000E+00 0.00000E+00 4.00000E+00
 -1        42 1.00000E+00 0.00000E+00 5.00000E+00
 -1        44 1.00000E+00 0.00000E+00 6.00000E+00
 -1        46 1.00000E+00 0.00000E+00 7.00000E+00
 -1        49 0.00000E+00 0.00000E+00 7.00000E+00
 -1        51 0.00000E+00 0.00000E+00 6.00000E+00
 -1        53 0.00000E+00 0.00000E+00 5.00000E+00
 -1        55 0.00000E+00 0.00000E+00 4.00000E+00
 -1        57 0.00000E+00 0.00000E+00 3.00000E+00
 -1        59 0.00000E+00 0.00000E+00 2.00000E+00
 -1        61 0.00000E+00 0.00000E+00 1.00000E+00
 -1        64 1.00000E+00 1.50000E+00 1.00000E+00
 -1        66 1.00000E+00 1.50000E+00 2.00000E+00
 -1        68 1.00000E+00 1.50000E+00 3.00000E+00
 -1        70 1.00000E+00 1.50000E+00 4.00000E+00
 -1        72 1.00000E+00 1.50000E+00 5.00000E+00
 -1        74 1.00000E+00 1.50000E+00 6.00000E+00
 -1        76 1.00000E+00 1.50000E+00 7.00000E+00
 -1        79 0.00000E+00 1.50000E+00 1.00000E+00
 -1        81 0.00000E+00 1.50000E+00 2.00000E+00
 -1        83 0.00000E+00 1.50000E+00 3.00000E+00
 -1        85 0.00000E+00 1.50000E+00 4.00000E+00
 -1        87 0.00000E+00 1.50000E+00 5.00000E+00
 -1        89 0.00000E+00 1.50000E+00 6.00000E+00
 -1        91 0.00000E+00 1.50000E+00 7.00000E+00
 -1        95 5.00000E-01 7.50000E-01 0.00000E+00
 -1       100 5.00000E-01 7.50000E-01 8.00000E+00
 -1       105 5.00000E-01 0.00000E+00 1.00000E+00
 -1       109 5.00000E-01 0.00000E+00 2.00000E+00
 -1       113 5.00000E-01 0.00000E+00 3.00000E+00
 -1       117 5.00000E-01 0.00000E+00 4.00000E+00
 -1       121 5.00000E-01 0.00000E+00 5.00000E+00
 -1       125 5.00000E-01 0.00000E+00 6.00000E+00
 -1       129 5.00000E-01 0.00000E+00 7.00000E+00
 -1       134 1.00000E+00 7.50000E-01 1.00000E+00
 -1       138 1.00000E+00 7.50000E-01 2.00000E+00
 -1       142 1.00000E+00 7.50000E-01 3.00000E+00
 -1       146 1.00000E+00 7.50000E-01 4.00000E+00
 -1       150 1.00000E+00 7.50000E-01 5.00000E+00
 -1       154 1.00000E+00 7.50000E-01 6.00000E+00
 -1       158 1.00000E+00 7.50000E-01 7.00000E+00
 -1       163 5.00000E-01 1.50000E+00 1.00000E+00
 -1       167 5.00000E-01 1.50000E+00 2.00000E+00
 -1       171 5.00000E-01 1.50000E+00 3.00000E+00
 -1       175 5.00000E-01 1.50000E+00 4.00000E+00
 -1       179 5.00000E-01 1.50000E+00 5.00000E+00
 -1       183 5.00000E-01 1.50000E+00 6.00000E+00
 -1       187 5.00000E-01 1.50000E+00 7.00000E+00
 -1       192 0.00000E+00 7.50000E-01 1.00000E+00
 -1       196 0.00000E+00 7.50000E-01 2.00000E+00
 -1       200 0.00000E+00 7.50000E-01 3.00000E+00
 -1       204 0.00000E+00 7.50000E-01 4.00000E+00
 -1       208 0.00000E+00 7.50000E-01 5.00000E+00
 -1       212 0.00000E+00 7.50000E-01 6.00000E+00
 -1       216 0.00000E+00 7.50000E-01 7.00000E+00
 -1       222 5.00000E-01 7.50000E-01 1.00000E+00
 -1       228 5.00000E-01 7.50000E-01 2.00000E+00
 -1       234 5.00000E-01 7.50000E-01 3.00000E+00
 -1       240 5.00000E-01 7.50000E-01 4.00000E+00
 -1       246 5.00000E-01 7.50000E-01 5.00000E+00
 -1       252 5.00000E-01 7.50000E-01 6.00000E+00
 -1       258 5.00000E-01 7.50000E-01 7.00000E+00
 -3
    3C                            32                                     1
 -1         1    1    0    1
 -2         1        10        95        19        61       105       222       192
 -1         2    1    0    1
 -2        10         2        13        95       105        34       134       222
 -1         3    1    0    1
 -2        19        95        16         4       192       222       163        79
 -1         4    1    0    1
 -2        95        13         3        16       222       134        64       163
 -1         5    1    0    1
 -2        61       105       222       192        59       109       228       196
 -1         6    1    0    1
 -2       105        34       134       222       109        36       138       228
 -1         7    1    0    1
 -2       192       222       163        79       196       228       167        81
 -1         8    1    0    1
 -2       222       134        64       163       228       138        66       167
 -1         9    1    0    1
 -2        59       109       228       196        57       113       234       200
 -1        10    1    0    1
 -2       109        36       138       228       113        38       142       234
 -1        11    1    0    1
 -2       196       228       167        81       200       234       171        83
 -1        12    1    0    1
 -2       228       138        66       167       234       142        68       171
 -1        13    1    0    1
 -2        57       113       234       200        55       117       240       204
 -1        14    1    0    1
 -2       113        38       142       234       117        40       146       240
 -1        15    1    0    1
 -2       200       234       171        83       204       240       175        85
 -1        16    1    0    1
 -2       234       142        68       171       240       146        70       175
 -1        17    1    0    1
 -2        55       117       240       204        53       121       246       208
 -1        18    1    0    1
 -2       117        40       146       240       121        42       150       246
 -1        19    1    0    1
 -2       204       240       175        85       208       246       179        87
 -1        20    1    0    1
 -2       240       146        70       175       246       150        72       179
 -1        21    1    0    1
 -2        53       121       246       208        51       125       252       212
 -1        22    1    0    1
 -2       121        42       150       246       125        44       154       252
 -1        23    1    0    1
 -2       208       246       179        87       212       252       183        89
 -1        24    1    0    1
 -2       246       150        72       179       252       154        74       183
 -1        25    1    0    1
 -2        51       125       252       212        49       129       258       216
 -1        26    1    0    1
 -2       125        44       154       252       129        46       158       258
 -1        27    1    0    1
 -2       212       252       183        89       216       258       187        91
 -1        28    1    0    1
 -2       252       154        74       183       258       158        76       187
 -1        29    1    0    1
 -2        49       129       258       216         5        22       100        31
 -1        30    1    0    1
 -2       129        46       158       258        22         6        25       100
 -1        31    1    0    1
 -2       216       258       187        91        31       100        28         8
 -1        32    1    0    1
 -2       258       158        76       187       100        25         7        28
 -3
    1PSTEP                         1           1           1          
  100CL  101 1.000000000          81                     0    1           1
 -4  DISP        4    1
 -5  D1          1    2    1    0
 -5  D2          1    2    2    0
 -5  D3          1    2    3    0
 -5  ALL         1    2    0    0    1ALL
 -1         1 0.00000E+00 0.00000E+00 0.00000E+00
 -1         2 0.00000E+00 0.00000E+00 0.00000E+00
 -1         3 0.00000E+00 0.00000E+00 0.00000E+00
 -1         4 0.00000E+00 0.00000E+00 0.00000E+00
 -1         5 2.33670E-06 2.39296E-03 3.31623E-04
 -1         6-2.33670E-06 2.39296E-03 3.31623E-04
 -1         7 2.33670E-06 2.39296E-03-3.31623E-04
 -1         8-2.33670E-06 2.39296E-03-3.31623E-04
 -1        10 0.00000E+00 0.00000E+00 0.00000E+00
 -1        13 0.00000E+00 0.00000E+00 0.00000E+00
 -1        16 0.00000E+00 0.00000E+00 0.00000E+00
 -1        19 0.00000E+00 0.00000E+00 0.00000E+00
 -1        22 4.85494E-17 2.39281E-03 3.31130E-04
 -1        25 3.03365E-17 2.39121E-03-1.01315E-18
 -1        28 1.23449E-17 2.39281E-03-3.31130E-04
 -1        31 3.03237E-17 2.39121E-03 7.12672E-18
 -1        34-1.41615E-05 5.88438E-05 7.25896E-05
 -1        36-1.00523E-05 2.08368E-04 1.41292E-04
 -1        38-8.57961E-06 4.44088E-04 1.99383E-04
 -1        40-6.86988E-06 7.49644E-04 2.46812E-04
 -1        42-5.12592E-06 1.11155E-03 2.83706E-04
 -1        44-3.51124E-06 1.51559E-03 3.10110E-04
 -1        46-1.29471E-06 1.94792E-03 3.25781E-04
 -1        49 1.29471E-06 1.94792E-03 3.25781E-04
 -1        51 3.51124E-06 1.51559E-03 3.10110E-04
 -1        53 5.12592E-06 1.11155E-03 2.83706E-04
 -1        55 6.86988E-06 7.49644E-04 2.46812E-04
 -1        57 8.57961E-06 4.44088E-04 1.99383E-04
 -1        59 1.00523E-05 2.08368E-04 1.41292E-04
 -1        61 1.41615E-05 5.88438E-05 7.25896E-05
 -1        64 1.41615E-05 5.88438E-05-7.25896E-05
 -1        66 1.00523E-05 2.08368E-04-1.41292E-04
 -1        68 8.57961E-06 4.44088E-04-1.99383E-04
 -1        70 6.86988E-06 7.49644E-04-2.46812E-04
 -1        72 5.12592E-06 1.11155E-03-2.83706E-04
 -1        74 3.51124E-06 1.51559E-03-3.10110E-04
 -1        76 1.29471E-06 1.94792E-03-3.25781E-04
 -1        79-1.41615E-05 5.88438E-05-7.25896E-05
 -1        81-1.00523E-05 2.08368E-04-1.41292E-04
 -1        83-8.57961E-06 4.44088E-04-1.99383E-04
 -1        85-6.86988E-06 7.49644E-04-2.46812E-04
 -1        87-5.12592E-06 1.11155E-03-2.83706E-04
 -1        89-3.51124E-06 1.51559E-03-3.10110E-04
 -1        91-1.29471E-06 1.94792E-03-3.25781E-04
 -1        95 0.00000E+00 0.00000E+00 0.00000E+00
 -1       100 3.03238E-17 2.39922E-03 2.94929E-18
 -1       105 2.45628E-18 6.33773E-05 7.12189E-05
 -1       109 5.93235E-18 2.11817E-04 1.42147E-04
 -1       113 1.00425E-17 4.46915E-04 1.99632E-04
 -1       117 1.48659E-17 7.51936E-04 2.47160E-04
 -1       121 2.07801E-17 1.11328E-03 2.84071E-04
 -1       125 2.85713E-17 1.51665E-03 3.10376E-04
 -1       129 3.91113E-17 1.94870E-03 3.26370E-04
 -1       134 2.89505E-19 4.90193E-05 1.06475E-19
 -1       138 1.29193E-18 2.01965E-04 2.60560E-19
 -1       142 2.87002E-18 4.38250E-04 3.95746E-19
 -1       146 5.31598E-18 7.45095E-04 4.38937E-19
 -1       150 9.16530E-18 1.10814E-03-1.39395E-19
 -1       154 1.47345E-17 1.51317E-03-6.09864E-19
 -1       158 2.24294E-17 1.94726E-03-9.77326E-19
 -1       163-1.87260E-18 6.33773E-05-7.12189E-05
 -1       167-3.40084E-18 2.11817E-04-1.42147E-04
 -1       171-4.46350E-18 4.46915E-04-1.99632E-04
 -1       175-4.64513E-18 7.51936E-04-2.47160E-04
 -1       179-3.47622E-18 1.11328E-03-2.84071E-04
 -1       183 1.62391E-20 1.51665E-03-3.10376E-04
 -1       187 5.13641E-18 1.94870E-03-3.26370E-04
 -1       192 4.68246E-19 4.90193E-05 7.55553E-19
 -1       196 1.39379E-18 2.01965E-04 1.55515E-18
 -1       200 3.12399E-18 4.38250E-04 2.43607E-18
 -1       204 5.19397E-18 7.45095E-04 3.41370E-18
 -1       208 9.00565E-18 1.10814E-03 4.75694E-18
 -1       212 1.47079E-17 1.51317E-03 6.22061E-18
 -1       216 2.26059E-17 1.94726E-03 7.10253E-18
 -1       222 3.51264E-19 5.35203E-05 4.13476E-19
 -1       228 1.30440E-18 2.05290E-04 9.30042E-19
 -1       234 3.01229E-18 4.41142E-04 1.43701E-18
 -1       240 5.18384E-18 7.47387E-04 1.93927E-18
 -1       246 8.98154E-18 1.10978E-03 2.26031E-18
 -1       252 1.45733E-17 1.51470E-03 2.83925E-18
 -1       258 2.26056E-17 1.94609E-03 3.12294E-18
 -3
    1PSTEP                         2           1           1          
  100CL  101 1.000000000          81                     0    1           1
 -4  STRESS      6    1
 -5  SXX         1    4    1    1
 -5  SYY         1    4    2    2
 -5  SZZ         1    4    3    3
 -5  SXY         1    4    1    2
 -5  SYZ         1    4    2    3
 -5  SZX         1    4    3    1
 -1         1 8.79439E+00 8.79440E+00 2.05201E+01-2.14093E-06 4.75272E+00 1.14380E+00
 -1         2 8.79439E+00 8.79440E+00 2.05201E+01 2.14093E-06 4.75272E+00-1.14380E+00
 -1         3-8.79439E+00-8.79440E+00-2.05201E+01 2.14093E-06 4.75272E+00 1.14380E+00
 -1         4-8.79439E+00-8.79440E+00-2.05201E+01-2.14093E-06 4.75272E+00-1.14380E+00
 -1         5-8.95904E-01-5.17674E-01 8.02643E-01-2.74472E-01 2.31992E-01 4.61575E-03
 -1         6-8.95904E-01-5.17674E-01 8.02643E-01 2.74472E-01 2.31992E-01-4.61575E-03
 -1         7 8.95904E-01 5.17674E-01-8.02643E-01 2.74472E-01 2.31992E-01 4.61575E-03
 -1         8 8.95904E-01 5.17674E-01-8.02643E-01-2.74472E-01 2.31992E-01-4.61575E-03
 -1        10 8.62833E+00 8.62833E+00 2.01326E+01-7.11237E-17 5.11888E+00 1.98176E-13
 -1        13 1.34615E-14 1.24067E-14 3.04201E-14 2.15957E-06 3.95920E+00 2.33633E-14
 -1        16-8.62833E+00-8.62833E+00-2.01326E+01 2.08167E-17 5.11888E+00-1.51091E-13
 -1        19 9.08822E-14 9.13991E-14 2.13440E-13-2.15957E-06 3.95920E+00 3.77107E-14
 -1        22 2.89687E-01 2.42348E+00 1.81346E+00 8.90329E-14 2.10997E-01 6.08749E-14
 -1        25-3.87190E-14-1.05416E-13-4.17166E-14-1.04220E+00 1.43776E-01-1.70437E-15
 -1        28-2.89687E-01-2.42348E+00-1.81346E+00-2.46105E-14 2.10997E-01-4.74482E-14
 -1        31-2.62568E-14-5.98410E-14-2.76168E-14 1.04220E+00 1.43776E-01-5.32963E-14
 -1        34-1.03468E+00 1.42451E+00 1.49523E+01 7.92748E-01 5.97511E-01-1.84534E-01
 -1        36 9.62933E-01 2.83135E+00 1.44513E+01 5.25480E-01 3.41804E-01 8.73798E-02
 -1        38 5.98275E-01 2.11279E+00 1.18926E+01 4.67264E-01 3.87176E-01 8.82465E-02
 -1        40 4.89002E-01 1.72864E+00 9.51898E+00 3.69556E-01 3.75223E-01 8.32372E-02
 -1        42 3.86109E-01 1.30862E+00 7.15453E+00 2.71618E-01 3.79354E-01 7.66668E-02
 -1        44 1.73801E-01 7.88473E-01 4.70649E+00 2.06092E-01 3.80169E-01 1.11775E-01
 -1        46 4.65070E-01 7.41912E-01 2.62086E+00 1.42066E-02 3.48113E-01-4.77939E-02
 -1        49 4.65070E-01 7.41912E-01 2.62086E+00-1.42066E-02 3.48113E-01 4.77939E-02
 -1        51 1.73801E-01 7.88473E-01 4.70649E+00-2.06092E-01 3.80169E-01-1.11775E-01
 -1        53 3.86109E-01 1.30862E+00 7.15453E+00-2.71618E-01 3.79354E-01-7.66668E-02
 -1        55 4.89002E-01 1.72864E+00 9.51898E+00-3.69556E-01 3.75223E-01-8.32372E-02
 -1        57 5.98275E-01 2.11279E+00 1.18926E+01-4.67264E-01 3.87176E-01-8.82465E-02
 -1        59 9.62933E-01 2.83135E+00 1.44513E+01-5.25480E-01 3.41804E-01-8.73798E-02
 -1        61-1.03468E+00 1.42451E+00 1.49523E+01-7.92748E-01 5.97511E-01 1.84534E-01
 -1        64 1.03468E+00-1.42451E+00-1.49523E+01 7.92748E-01 5.97511E-01 1.84534E-01
 -1        66-9.62933E-01-2.83135E+00-1.44513E+01 5.25480E-01 3.41804E-01-8.73798E-02
 -1        68-5.98275E-01-2.11279E+00-1.18926E+01 4.67264E-01 3.87176E-01-8.82465E-02
 -1        70-4.89002E-01-1.72864E+00-9.51898E+00 3.69556E-01 3.75223E-01-8.32372E-02
 -1        72-3.86109E-01-1.30862E+00-7.15453E+00 2.71618E-01 3.79354E-01-7.66668E-02
 -1        74-1.73801E-01-7.88473E-01-4.70649E+00 2.06092E-01 3.80169E-01-1.11775E-01
 -1        76-4.65070E-01-7.41912E-01-2.62086E+00 1.42066E-02 3.48113E-01 4.77939E-02
 -1        79 1.03468E+00-1.42451E+00-1.49523E+01-7.92748E-01 5.97511E-01-1.84534E-01
 -1        81-9.62933E-01-2.83135E+00-1.44513E+01-5.25480E-01 3.41804E-01 8.73798E-02
 -1        83-5.98275E-01-2.11279E+00-1.18926E+01-4.67264E-01 3.87176E-01 8.82465E-02
 -1        85-4.89002E-01-1.72864E+00-9.51898E+00-3.69556E-01 3.75223E-01 8.32372E-02
 -1        87-3.86109E-01-1.30862E+00-7.15453E+00-2.71618E-01 3.79354E-01 7.66668E-02
 -1        89-1.73801E-01-7.88473E-01-4.70649E+00-2.06092E-01 3.80169E-01 1.11775E-01
 -1        91-4.65070E-01-7.41912E-01-2.62086E+00-1.42066E-02 3.48113E-01-4.77939E-02
 -1        95 5.01734E-14 4.99323E-14 1.18142E-13-2.60209E-18 4.32274E+00 2.83731E-14
 -1       100 2.43139E-14 7.41629E-14-2.10942E-15-3.84137E-14 9.38117E-01-3.51062E-14
 -1       105-9.88170E-01 1.46401E+00 1.50678E+01-1.11022E-15 8.84388E-01 1.22555E-13
 -1       109 1.04111E+00 2.88292E+00 1.46603E+01-2.77556E-17 1.80869E-01 1.17184E-13
 -1       113 5.78091E-01 2.10659E+00 1.18316E+01-1.64591E-14 3.13630E-01 1.20638E-13
 -1       117 4.96007E-01 1.73563E+00 9.53533E+00-3.21965E-15 2.93660E-01 1.26104E-13
 -1       121 3.64891E-01 1.26576E+00 7.12667E+00-9.53404E-15 2.90483E-01 1.09321E-13
 -1       125 2.61448E-01 9.74853E-01 4.81227E+00-5.19099E-14 3.12745E-01 1.31681E-13
 -1       129 1.05131E-01-3.67003E-02 2.19968E+00-2.86507E-14 2.35913E-01 7.76358E-14
 -1       134-2.29261E-14-8.88178E-15 1.99840E-14 7.98002E-01 3.38908E-01 2.42167E-15
 -1       138 6.10623E-16-1.14353E-14 3.14193E-14 5.45437E-01 5.02809E-01-4.53327E-15
 -1       142-5.50671E-14 4.32987E-15 1.33782E-14 4.56772E-01 4.62058E-01-6.62057E-15
 -1       146 3.25850E-14-3.07532E-14-4.67126E-14 3.69563E-01 4.73436E-01 1.14299E-14
 -1       150 1.52822E-13 2.35090E-13 1.70974E-14 2.87851E-01 4.65627E-01-6.51259E-15
 -1       154 5.06956E-14 5.99520E-15-6.27831E-14 1.32042E-01 4.91187E-01-2.09472E-14
 -1       158-5.59656E-14 8.19900E-14-2.17673E-14 3.28212E-01 3.74932E-01-3.16236E-14
 -1       163 9.88170E-01-1.46401E+00-1.50678E+01 1.38500E-14 8.84388E-01-1.19134E-13
 -1       167-1.04111E+00-2.88292E+00-1.46603E+01-2.44249E-15 1.80869E-01-1.28841E-13
 -1       171-5.78091E-01-2.10659E+00-1.18316E+01 1.76248E-15 3.13630E-01-1.32587E-13
 -1       175-4.96007E-01-1.73563E+00-9.53533E+00 2.64233E-14 2.93660E-01-1.36533E-13
 -1       179-3.64891E-01-1.26576E+00-7.12667E+00 6.11039E-14 2.90483E-01-1.00380E-13
 -1       183-2.61448E-01-9.74853E-01-4.81227E+00 2.18020E-14 3.12745E-01-1.26555E-13
 -1       187-1.05131E-01 3.67003E-02-2.19968E+00 3.01981E-14 2.35913E-01-9.71445E-14
 -1       192-6.88338E-15-1.45439E-14 1.55320E-13-7.98002E-01 3.38908E-01 9.44177E-16
 -1       196 3.14748E-14 3.53051E-14 1.95233E-13-5.45437E-01 5.02809E-01 7.01121E-15
 -1       200-5.38458E-15-3.81917E-14 1.78024E-13-4.56772E-01 4.62058E-01-8.03798E-15
 -1       204 7.89646E-14 1.09357E-14 2.67175E-13-3.69563E-01 4.73436E-01 1.00516E-15
 -1       208 1.09190E-13 5.67879E-14 3.42060E-13-2.87851E-01 4.65627E-01-2.14703E-14
 -1       212-1.07789E-13-2.88602E-13 1.16726E-13-1.32042E-01 4.91187E-01 4.07042E-15
 -1       216 2.07612E-14-1.95122E-14 8.91891E-14-3.28212E-01 3.74932E-01-1.22856E-14
 -1       222-1.19904E-14-7.16094E-15 9.24261E-14 1.06165E-14 6.20796E-01 2.19985E-16
 -1       228 7.91034E-15-9.54792E-15 1.07303E-13 3.62210E-15 3.45810E-01 3.04094E-15
 -1       234-3.33622E-14-2.28706E-14 8.87623E-14-5.24580E-15 3.93499E-01-8.61805E-15
 -1       240 5.49977E-14-4.08007E-15 1.02127E-13 5.48658E-14 3.85191E-01 1.41049E-15
 -1       246 3.47361E-14-7.79099E-14 8.21010E-14-1.51684E-14 3.95270E-01-1.70460E-14
 -1       252-1.53350E-14-1.22347E-13 5.24719E-14-7.71952E-15 3.49320E-01-6.78006E-16
 -1       258 4.62130E-15 9.67976E-14 4.19040E-14-1.38674E-14 5.73386E-01-1.62368E-14
 -3
    1PSTEP                         3           1           1          
  100CL  101 1.000000000          81                     0    1           1
 -4  ERROR       1    1
 -5  STR(%)      1    1    0    0
 -1         1 6.08651E+01
 -1         2 6.08651E+01
 -1         3 6.08651E+01
 -1         4 6.08651E+01
 -1         5 4.70004E+01
 -1         6 4.70004E+01
 -1         7 4.70004E+01
 -1         8 4.70004E+01
 -1        10 6.08651E+01
 -1        13 6.08651E+01
 -1        16 6.08651E+01
 -1        19 6.08651E+01
 -1        22 4.70004E+01
 -1        25 4.70004E+01
 -1        28 4.70004E+01
 -1        31 4.70004E+01
 -1        34 6.08651E+01
 -1        36 5.79534E+01
 -1        38 5.84113E+01
 -1        40 5.91987E+01
 -1        42 6.00778E+01
 -1        44 6.23107E+01
 -1        46 6.23107E+01
 -1        49 6.23107E+01
 -1        51 6.23107E+01
 -1        53 6.00778E+01
 -1        55 5.91987E+01
 -1        57 5.84113E+01
 -1        59 5.79534E+01
 -1        61 6.08651E+01
 -1        64 6.08651E+01
 -1        66 5.79534E+01
 -1        68 5.84113E+01
 -1        70 5.91987E+01
 -1        72 6.00778E+01
 -1        74 6.23107E+01
 -1        76 6.23107E+01
 -1        79 6.08651E+01
 -1        81 5.79534E+01
 -1        83 5.84113E+01
 -1        85 5.91987E+01
 -1        87 6.00778E+01
 -1        89 6.23107E+01
 -1        91 6.23107E+01
 -1        95 6.08651E+01
 -1       100 4.70004E+01
 -1       105 6.08651E+01
 -1       109 5.79534E+01
 -1       113 5.84113E+01
 -1       117 5.91987E+01
 -1       121 6.00778E+01
 -1       125 6.23107E+01
 -1       129 6.23107E+01
 -1       134 6.08651E+01
 -1       138 5.79534E+01
 -1       142 5.84113E+01
 -1       146 5.91987E+01
 -1       150 6.00778E+01
 -1       154 6.23107E+01
 -1       158 6.23107E+01
 -1       163 6.08651E+01
 -1       167 5.79534E+01
 -1       171 5.84113E+01
 -1       175 5.91987E+01
 -1       179 6.00778E+01
 -1       183 6.23107E+01
 -1       187 6.23107E+01
 -1       192 6.08651E+01
 -1       196 5.79534E+01
 -1       200 5.84113E+01
 -1       204 5.91987E+01
 -1       208 6.00778E+01
 -1       212 6.23107E+01
 -1       216 6.23107E+01
 -1       222 6.08651E+01
 -1       228 5.79534E+01
 -1       234 5.84113E+01
 -1       240 5.91987E+01
 -1       246 6.00778E+01
 -1       252 6.23107E+01
 -1       258 6.23107E+01
 -3
    1PSTEP                         1           1           2          
  100CL  102 0.00000E+00          81                     3    2           1
 -4  NORM        4    1
 -5  NORMX       1    2	 1    0
 -5  NORMY       1    2	 2    0
 -5  NORMZ       1    2	 3    0
 -5  ALL         1    2	 0    0    1ALL
 -1         1 0.00000E+00 0.00000E+00 0.00000E+00
 -1         2 0.00000E+00 0.00000E+00 0.00000E+00
 -1         3 0.00000E+00 0.00000E+00 0.00000E+00
 -1         4 0.00000E+00 0.00000E+00 0.00000E+00
 -1         5-5.77350E-01-5.77350E-01 5.77350E-01
 -1         6 5.77350E-01-5.77350E-01 5.77350E-01
 -1         7 5.77350E-01 5.77350E-01 5.77350E-01
 -1         8-5.77350E-01 5.77350E-01 5.77350E-01
 -1        10 0.00000E+00 0.00000E+00 0.00000E+00
 -1        13 0.00000E+00 0.00000E+00 0.00000E+00
 -1        16 0.00000E+00 0.00000E+00 0.00000E+00
 -1        19 0.00000E+00 0.00000E+00 0.00000E+00
 -1        22 0.00000E+00-7.07107E-01 7.07107E-01
 -1        25 7.07107E-01 0.00000E+00 7.07107E-01
 -1        28 0.00000E+00 7.07107E-01 7.07107E-01
 -1        31-7.07107E-01 0.00000E+00 7.07107E-01
 -1        34 7.07107E-01-7.07107E-01 0.00000E+00
 -1        36 7.07107E-01-7.07107E-01 0.00000E+00
 -1        38 7.07107E-01-7.07107E-01 0.00000E+00
 -1        40 7.07107E-01-7.07107E-01 0.00000E+00
 -1        42 7.07107E-01-7.07107E-01 0.00000E+00
 -1        44 7.07107E-01-7.07107E-01 0.00000E+00
 -1        46 7.07107E-01-7.07107E-01 0.00000E+00
 -1        49-7.07107E-01-7.07107E-01 0.00000E+00
 -1        51-7.07107E-01-7.07107E-01 0.00000E+00
 -1        53-7.07107E-01-7.07107E-01 0.00000E+00
 -1        55-7.07107E-01-7.07107E-01 0.00000E+00
 -1        57-7.07107E-01-7.07107E-01 0.00000E+00
 -1        59-7.07107E-01-7.07107E-01 0.00000E+00
 -1        61-7.07107E-01-7.07107E-01 0.00000E+00
 -1        64 7.07107E-01 7.07107E-01 0.00000E+00
 -1        66 7.07107E-01 7.07107E-01 0.00000E+00
 -1        68 7.07107E-01 7.07107E-01 0.00000E+00
 -1        70 7.07107E-01 7.07107E-01 0.00000E+00
 -1        72 7.07107E-01 7.07107E-01 0.00000E+00
 -1        74 7.07107E-01 7.07107E-01 0.00000E+00
 -1        76 7.07107E-01 7.07107E-01 0.00000E+00
 -1        79-7.07107E-01 7.07107E-01 0.00000E+00
 -1        81-7.07107E-01 7.07107E-01 0.00000E+00
 -1        83-7.07107E-01 7.07107E-01 0.00000E+00
 -1        85-7.07107E-01 7.07107E-01 0.00000E+00
 -1        87-7.07107E-01 7.07107E-01 0.00000E+00
 -1        89-7.07107E-01 7.07107E-01 0.00000E+00
 -1        91-7.07107E-01 7.07107E-01 0.00000E+00
 -1        95 0.00000E+00 0.00000E+00 0.00000E+00
 -1       100 0.00000E+00 0.00000E+00 1.00000E+00
 -1       105 0.00000E+00-1.00000E+00 0.00000E+00
 -1       109 0.00000E+00-1.00000E+00 0.00000E+00
 -1       113 0.00000E+00-1.00000E+00 0.00000E+00
 -1       117 0.00000E+00-1.00000E+00 0.00000E+00
 -1       121 0.00000E+00-1.00000E+00 0.00000E+00
 -1       125 0.00000E+00-1.00000E+00 0.00000E+00
 -1       129 0.00000E+00-1.00000E+00 0.00000E+00
 -1       134 1.00000E+00 0.00000E+00 0.00000E+00
 -1       138 1.00000E+00 0.00000E+00 0.00000E+00
 -1       142 1.00000E+00 0.00000E+00 0.00000E+00
 -1       146 1.00000E+00 0.00000E+00 0.00000E+00
 -1       150 1.00000E+00 0.00000E+00 0.00000E+00
 -1       154 1.00000E+00 0.00000E+00 0.00000E+00
 -1       158 1.00000E+00 0.00000E+00 0.00000E+00
 -1       163 0.00000E+00 1.00000E+00 0.00000E+00
 -1       167 0.00000E+00 1.00000E+00 0.00000E+00
 -1       171 0.00000E+00 1.00000E+00 0.00000E+00
 -1       175 0.00000E+00 1.00000E+00 0.00000E+00
 -1       179 0.00000E+00 1.00000E+00 0.00000E+00
 -1       183 0.00000E+00 1.00000E+00 0.00000E+00
 -1       187 0.00000E+00 1.00000E+00 0.00000E+00
 -1       192-1.00000E+00 0.00000E+00 0.00000E+00
 -1       196-1.00000E+00 0.00000E+00 0.00000E+00
 -1       200-1.00000E+00 0.00000E+00 0.00000E+00
 -1       204-1.00000E+00 0.00000E+00 0.00000E+00
 -1       208-1.00000E+00 0.00000E+00 0.00000E+00
 -1       212-1.00000E+00 0.00000E+00 0.00000E+00
 -1       216-1.00000E+00 0.00000E+00 0.00000E+00
 -1       222 0.00000E+00 0.00000E+00 0.00000E+00
 -1       228 0.00000E+00 0.00000E+00 0.00000E+00
 -1       234 0.00000E+00 0.00000E+00 0.00000E+00
 -1       240 0.00000E+00 0.00000E+00 0.00000E+00
 -1       246 0.00000E+00 0.00000E+00 0.00000E+00
 -1       252 0.00000E+00 0.00000E+00 0.00000E+00
 -1       258 0.00000E+00 0.00000E+00 0.00000E+00
 -3
    1PSTEP                         2           1           2          
  100CL  103 0.00000E+00          81                     3    3           1
 -4  SENSTRE     2    1
 -5  DFDN        1    1    1    0
 -5  DFDNFIL     1    1    2    0
 -1         1 0.00000E+00 0.00000E+00
 -1         2 0.00000E+00 0.00000E+00
 -1         3 0.00000E+00 0.00000E+00
 -1         4 0.00000E+00 0.00000E+00
 -1         5-2.13579E-06 6.18104E-02
 -1         6-2.16776E-06 6.18104E-02
 -1         7-1.96718E-06 6.18103E-02
 -1         8-2.42169E-06 6.18103E-02
 -1        10 0.00000E+00 0.00000E+00
 -1        13 0.00000E+00 0.00000E+00
 -1        16 0.00000E+00 0.00000E+00
 -1        19 0.00000E+00 0.00000E+00
 -1        22-6.60619E-06 6.16274E-02
 -1        25-3.64396E-06 6.16017E-02
 -1        28-6.14668E-06 6.16273E-02
 -1        31-3.71912E-06 6.16017E-02
 -1        34-1.04586E+00-9.99973E-01
 -1        36-1.49020E-01-6.06738E-01
 -1        38-1.10093E-02-1.79635E-01
 -1        40-1.03681E-03-2.05684E-02
 -1        42-1.32363E-04-1.70617E-03
 -1        44-5.21311E-06 8.35480E-03
 -1        46-4.06361E-06 3.71293E-02
 -1        49-3.71499E-06 3.71293E-02
 -1        51-4.89180E-06 8.35482E-03
 -1        53-1.32721E-04-1.70617E-03
 -1        55-1.03773E-03-2.05685E-02
 -1        57-1.10456E-02-1.79637E-01
 -1        59-1.49279E-01-6.06749E-01
 -1        61-1.05043E+00-1.00000E+00
 -1        64-1.05006E+00-9.99966E-01
 -1        66-1.49490E-01-6.06745E-01
 -1        68-1.10951E-02-1.79658E-01
 -1        70-1.04360E-03-2.05833E-02
 -1        72-1.33681E-04-1.70891E-03
 -1        74-5.47337E-06 8.35438E-03
 -1        76-4.10436E-06 3.71292E-02
 -1        79-1.04550E+00-9.99938E-01
 -1        81-1.49230E-01-6.06734E-01
 -1        83-1.10588E-02-1.79656E-01
 -1        85-1.04254E-03-2.05832E-02
 -1        87-1.33121E-04-1.70888E-03
 -1        89-5.40569E-06 8.35440E-03
 -1        91-4.07655E-06 3.71292E-02
 -1        95 0.00000E+00 0.00000E+00
 -1       100 5.44397E-01 6.17061E-02
 -1       105-2.19306E+00-9.97802E-01
 -1       109-2.31572E-01-6.07563E-01
 -1       113-1.74850E-02-1.80975E-01
 -1       117-2.39714E-03-2.07504E-02
 -1       121-1.20258E-04-1.71971E-03
 -1       125-3.72404E-05 8.45359E-03
 -1       129-1.08021E-05 3.71678E-02
 -1       134-4.37615E-01-9.83373E-01
 -1       138-1.05495E-01-6.08218E-01
 -1       142-7.58447E-03-1.84357E-01
 -1       146-8.05391E-04-2.12213E-02
 -1       150-7.91096E-05-1.75513E-03
 -1       154-6.78011E-06 8.71848E-03
 -1       158-1.05556E-06 3.74141E-02
 -1       163-2.19239E+00-9.97769E-01
 -1       167-2.31990E-01-6.07560E-01
 -1       171-1.75835E-02-1.80995E-01
 -1       175-2.40689E-03-2.07645E-02
 -1       179-1.22152E-04-1.72229E-03
 -1       183-3.84611E-05 8.45320E-03
 -1       187-1.12612E-05 3.71677E-02
 -1       192-4.37615E-01-9.83373E-01
 -1       196-1.05495E-01-6.08218E-01
 -1       200-7.58442E-03-1.84357E-01
 -1       204-8.05258E-04-2.12213E-02
 -1       208-7.89538E-05-1.75512E-03
 -1       212-6.13173E-06 8.71849E-03
 -1       216-7.27561E-07 3.74141E-02
 -1       222 0.00000E+00 0.00000E+00
 -1       228 0.00000E+00 0.00000E+00
 -1       234 0.00000E+00 0.00000E+00
 -1       240 0.00000E+00 0.00000E+00
 -1       246 0.00000E+00 0.00000E+00
 -1       252 0.00000E+00 0.00000E+00
 -1       258 0.00000E+00 0.00000E+00
 -3
 9999
