    1C
    1UBalken                                                            
    1UUSER                                                              
    1UDATE              25.january.2020                                 
    1UTIME              14:48:22                                        
    1UHOST                                                              
    1UPGM               CalculiX                                        
    1UVERSION           Version 2.16                             
    1UCOMPILETIME       Tue  7 Jan 19:57:43 CET 2020                    
    1UDIR                                                               
    1UDBN                                                               
    1UMAT    1STEEL                                                     
    2C                            11                                     1
 -1         1 0.00000E+00 0.00000E+00 0.00000E+00
 -1         2 0.00000E+00 0.00000E+00 1.00000E+02
 -1         3 0.00000E+00 0.00000E+00 2.00000E+02
 -1         4 0.00000E+00 0.00000E+00 3.00000E+02
 -1         5 0.00000E+00 0.00000E+00 4.00000E+02
 -1         6 0.00000E+00 0.00000E+00 5.00000E+02
 -1         7 0.00000E+00 0.00000E+00 6.00000E+02
 -1         8 0.00000E+00 0.00000E+00 7.00000E+02
 -1         9 0.00000E+00 0.00000E+00 8.00000E+02
 -1        10 0.00000E+00 0.00000E+00 9.00000E+02
 -1        11 0.00000E+00 0.00000E+00 1.00000E+03
 -3
    3C                             5                                     1
 -1         1   12    0    1
 -2         1         3         2
 -1         2   12    0    1
 -2         3         5         4
 -1         3   12    0    1
 -2         5         7         6
 -1         4   12    0    1
 -2         7         9         8
 -1         5   12    0    1
 -2         9        11        10
 -3
    1PSTEP                         1           1           1          
  100CL  101 1.000000000          11                     0    1           1
 -4  STRESS      6    1
 -5  SXX         1    4    1    1
 -5  SYY         1    4    2    2
 -5  SZZ         1    4    3    3
 -5  SXY         1    4    1    2
 -5  SYZ         1    4    2    3
 -5  SZX         1    4    3    1
 -1         1-7.94901E-09-1.00067E+02-4.68390E-10 6.78998E-07 1.00004E+05-6.21076E-06
 -1         2-7.88919E-09-9.98180E+01-4.52943E-10 6.75928E-07 9.00079E+04-5.41127E-06
 -1         3-7.82936E-09-9.95689E+01-4.37495E-10 6.72858E-07 8.00118E+04-4.61178E-06
 -1         4-7.39906E-09-9.85577E+01-4.21196E-10 6.46963E-07 7.00083E+04-3.83806E-06
 -1         5-6.96876E-09-9.75466E+01-4.04896E-10 6.21068E-07 6.00048E+04-3.06434E-06
 -1         6-6.69142E-09-9.80515E+01-4.94644E-10 5.75826E-07 5.00004E+04-2.38785E-06
 -1         7-6.41409E-09-9.85564E+01-5.84393E-10 5.30584E-07 3.99960E+04-1.71136E-06
 -1         8-5.53521E-09-9.85784E+01-1.96316E-10 4.38626E-07 2.99995E+04-1.06544E-06
 -1         9-4.65634E-09-9.86004E+01 1.91761E-10 3.46668E-07 2.00030E+04-4.19514E-07
 -1        10-3.11310E-09-9.86037E+01-6.02166E-10 2.57114E-07 1.00034E+04-2.00216E-07
 -1        11-1.56986E-09-9.86069E+01-1.39609E-09 1.67561E-07 3.80125E+00 1.90823E-08
 -3
 9999
