    1C
    1UBalken                                                            
    1UUSER                                                              
    1UDATE              25.january.2020                                 
    1UTIME              14:48:22                                        
    1UHOST                                                              
    1UPGM               CalculiX                                        
    1UVERSION           Version 2.16                             
    1UCOMPILETIME       Tue  7 Jan 19:57:43 CET 2020                    
    1UDIR                                                               
    1UDBN                                                               
    1UMAT    1STEEL                                                     
    2C                            68                                     1
 -1        12-2.50000E+01 2.50000E+01 0.00000E+00
 -1        13-2.50000E+01-2.50000E+01 0.00000E+00
 -1        14 2.50000E+01-2.50000E+01 0.00000E+00
 -1        15 2.50000E+01 2.50000E+01 0.00000E+00
 -1        16-2.50000E+01 0.00000E+00 0.00000E+00
 -1        17 0.00000E+00-2.50000E+01 0.00000E+00
 -1        18 2.50000E+01 0.00000E+00 0.00000E+00
 -1        19 0.00000E+00 2.50000E+01 0.00000E+00
 -1        20-2.50000E+01 2.50000E+01 1.00000E+02
 -1        21-2.50000E+01-2.50000E+01 1.00000E+02
 -1        22 2.50000E+01-2.50000E+01 1.00000E+02
 -1        23 2.50000E+01 2.50000E+01 1.00000E+02
 -1        28-2.50000E+01 2.50000E+01 2.00000E+02
 -1        29-2.50000E+01-2.50000E+01 2.00000E+02
 -1        30 2.50000E+01-2.50000E+01 2.00000E+02
 -1        31 2.50000E+01 2.50000E+01 2.00000E+02
 -1        32-2.50000E+01 0.00000E+00 2.00000E+02
 -1        33 0.00000E+00-2.50000E+01 2.00000E+02
 -1        34 2.50000E+01 0.00000E+00 2.00000E+02
 -1        35 0.00000E+00 2.50000E+01 2.00000E+02
 -1        36-2.50000E+01 2.50000E+01 3.00000E+02
 -1        37-2.50000E+01-2.50000E+01 3.00000E+02
 -1        38 2.50000E+01-2.50000E+01 3.00000E+02
 -1        39 2.50000E+01 2.50000E+01 3.00000E+02
 -1        44-2.50000E+01 2.50000E+01 4.00000E+02
 -1        45-2.50000E+01-2.50000E+01 4.00000E+02
 -1        46 2.50000E+01-2.50000E+01 4.00000E+02
 -1        47 2.50000E+01 2.50000E+01 4.00000E+02
 -1        48-2.50000E+01 0.00000E+00 4.00000E+02
 -1        49 0.00000E+00-2.50000E+01 4.00000E+02
 -1        50 2.50000E+01 0.00000E+00 4.00000E+02
 -1        51 0.00000E+00 2.50000E+01 4.00000E+02
 -1        52-2.50000E+01 2.50000E+01 5.00000E+02
 -1        53-2.50000E+01-2.50000E+01 5.00000E+02
 -1        54 2.50000E+01-2.50000E+01 5.00000E+02
 -1        55 2.50000E+01 2.50000E+01 5.00000E+02
 -1        60-2.50000E+01 2.50000E+01 6.00000E+02
 -1        61-2.50000E+01-2.50000E+01 6.00000E+02
 -1        62 2.50000E+01-2.50000E+01 6.00000E+02
 -1        63 2.50000E+01 2.50000E+01 6.00000E+02
 -1        64-2.50000E+01 0.00000E+00 6.00000E+02
 -1        65 0.00000E+00-2.50000E+01 6.00000E+02
 -1        66 2.50000E+01 0.00000E+00 6.00000E+02
 -1        67 0.00000E+00 2.50000E+01 6.00000E+02
 -1        68-2.50000E+01 2.50000E+01 7.00000E+02
 -1        69-2.50000E+01-2.50000E+01 7.00000E+02
 -1        70 2.50000E+01-2.50000E+01 7.00000E+02
 -1        71 2.50000E+01 2.50000E+01 7.00000E+02
 -1        76-2.50000E+01 2.50000E+01 8.00000E+02
 -1        77-2.50000E+01-2.50000E+01 8.00000E+02
 -1        78 2.50000E+01-2.50000E+01 8.00000E+02
 -1        79 2.50000E+01 2.50000E+01 8.00000E+02
 -1        80-2.50000E+01 0.00000E+00 8.00000E+02
 -1        81 0.00000E+00-2.50000E+01 8.00000E+02
 -1        82 2.50000E+01 0.00000E+00 8.00000E+02
 -1        83 0.00000E+00 2.50000E+01 8.00000E+02
 -1        84-2.50000E+01 2.50000E+01 9.00000E+02
 -1        85-2.50000E+01-2.50000E+01 9.00000E+02
 -1        86 2.50000E+01-2.50000E+01 9.00000E+02
 -1        87 2.50000E+01 2.50000E+01 9.00000E+02
 -1        92-2.50000E+01 2.50000E+01 1.00000E+03
 -1        93-2.50000E+01-2.50000E+01 1.00000E+03
 -1        94 2.50000E+01-2.50000E+01 1.00000E+03
 -1        95 2.50000E+01 2.50000E+01 1.00000E+03
 -1        96-2.50000E+01 0.00000E+00 1.00000E+03
 -1        97 0.00000E+00-2.50000E+01 1.00000E+03
 -1        98 2.50000E+01 0.00000E+00 1.00000E+03
 -1        99 0.00000E+00 2.50000E+01 1.00000E+03
 -3
    3C                             5                                     1
 -1         1    4    0    1
 -2        12        28        29        13        15        31        30        14        20        32
 -2        21        16        19        35        33        17        23        34        22        18
 -1         2    4    0    1
 -2        28        44        45        29        31        47        46        30        36        48
 -2        37        32        35        51        49        33        39        50        38        34
 -1         3    4    0    1
 -2        44        60        61        45        47        63        62        46        52        64
 -2        53        48        51        67        65        49        55        66        54        50
 -1         4    4    0    1
 -2        60        76        77        61        63        79        78        62        68        80
 -2        69        64        67        83        81        65        71        82        70        66
 -1         5    4    0    1
 -2        76        92        93        77        79        95        94        78        84        96
 -2        85        80        83        99        97        81        87        98        86        82
 -3
    1PSTEP                         1           1           1          
  100CL  101 1.000000000          68                     0    1           1
 -4  DISP        4    1
 -5  D1          1    2    1    0
 -5  D2          1    2    2    0
 -5  D3          1    2    3    0
 -5  ALL         1    2    0    0    1ALL
 -1        12 1.23486E-03 7.35896E-14-5.27009E-15
 -1        13-1.23486E-03-8.12328E-14 5.27009E-15
 -1        14 1.23486E-03 8.33246E-14-5.27009E-15
 -1        15-1.23486E-03-7.56815E-14 5.27009E-15
 -1        16 4.24140E-16-3.82160E-15 0.00000E+00
 -1        17-3.82160E-15 1.04593E-15 0.00000E+00
 -1        18-4.24140E-16 3.82160E-15 0.00000E+00
 -1        19 3.82160E-15-1.04593E-15 0.00000E+00
 -1        20 1.14520E-03-3.02886E-02 1.47710E-02
 -1        21-1.14520E-03-3.02886E-02-1.47710E-02
 -1        22 1.14520E-03-3.02886E-02-1.47710E-02
 -1        23-1.14520E-03-3.02886E-02 1.47710E-02
 -1        28 1.03936E-03-1.19129E-01 2.92766E-02
 -1        29-1.03936E-03-1.19129E-01-2.92766E-02
 -1        30 1.03936E-03-1.19129E-01-2.92766E-02
 -1        31-1.03936E-03-1.19129E-01 2.92766E-02
 -1        32-7.29801E-12-1.18440E-01-1.75901E-12
 -1        33-6.91888E-12-1.19814E-01-2.92743E-02
 -1        34-7.29887E-12-1.18440E-01 1.75453E-12
 -1        35-7.51650E-12-1.19814E-01 2.92743E-02
 -1        36 9.07674E-04-2.64220E-01 4.25940E-02
 -1        37-9.07674E-04-2.64220E-01-4.25940E-02
 -1        38 9.07674E-04-2.64220E-01-4.25940E-02
 -1        39-9.07674E-04-2.64220E-01 4.25940E-02
 -1        44 7.71841E-04-4.58366E-01 5.38089E-02
 -1        45-7.71841E-04-4.58366E-01-5.38089E-02
 -1        46 7.71841E-04-4.58366E-01-5.38089E-02
 -1        47-7.71841E-04-4.58366E-01 5.38089E-02
 -1        48-2.72400E-11-4.58025E-01-3.10832E-12
 -1        49-2.66105E-11-4.58709E-01-5.37952E-02
 -1        50-2.72412E-11-4.58025E-01 3.09951E-12
 -1        51-2.78031E-11-4.58709E-01 5.37952E-02
 -1        52 6.42855E-04-6.93471E-01 6.31549E-02
 -1        53-6.42855E-04-6.93471E-01-6.31549E-02
 -1        54 6.42855E-04-6.93471E-01-6.31549E-02
 -1        55-6.42855E-04-6.93471E-01 6.31549E-02
 -1        60 5.20173E-04-9.62737E-01 7.08871E-02
 -1        61-5.20174E-04-9.62737E-01-7.08871E-02
 -1        62 5.20173E-04-9.62737E-01-7.08871E-02
 -1        63-5.20174E-04-9.62737E-01 7.08871E-02
 -1        64-5.57099E-11-9.62466E-01-3.92557E-12
 -1        65-5.48412E-11-9.63006E-01-7.08793E-02
 -1        66-5.57100E-11-9.62466E-01 3.91337E-12
 -1        67-5.65309E-11-9.63006E-01 7.08793E-02
 -1        68 3.85056E-04-1.25961E+00 7.69348E-02
 -1        69-3.85056E-04-1.25961E+00-7.69348E-02
 -1        70 3.85056E-04-1.25961E+00-7.69348E-02
 -1        71-3.85056E-04-1.25961E+00 7.69348E-02
 -1        76 2.69994E-04-1.57718E+00 8.12388E-02
 -1        77-2.69995E-04-1.57718E+00-8.12388E-02
 -1        78 2.69994E-04-1.57718E+00-8.12388E-02
 -1        79-2.69995E-04-1.57718E+00 8.12388E-02
 -1        80-8.89316E-11-1.57705E+00-4.29957E-12
 -1        81-8.78698E-11-1.57731E+00-8.12297E-02
 -1        82-8.89326E-11-1.57705E+00 4.28349E-12
 -1        83-8.99841E-11-1.57731E+00 8.12297E-02
 -1        84 1.18639E-04-1.90849E+00 8.38087E-02
 -1        85-1.18639E-04-1.90849E+00-8.38087E-02
 -1        86 1.18639E-04-1.90849E+00-8.38087E-02
 -1        87-1.18639E-04-1.90849E+00 8.38087E-02
 -1        92 6.33957E-06-2.24667E+00 8.46752E-02
 -1        93-6.33981E-06-2.24667E+00-8.46752E-02
 -1        94 6.33957E-06-2.24667E+00-8.46752E-02
 -1        95-6.33982E-06-2.24667E+00 8.46752E-02
 -1        96-1.23658E-10-2.24666E+00-4.36906E-12
 -1        97-1.22519E-10-2.24666E+00-8.46640E-02
 -1        98-1.23660E-10-2.24666E+00 4.34867E-12
 -1        99-1.24800E-10-2.24666E+00 8.46640E-02
 -3
    1PSTEP                         2           1           1          
  100CL  101 1.000000000          68                     0    1           1
 -4  STRESS      6    1
 -5  SXX         1    4    1    1
 -5  SYY         1    4    2    2
 -5  SZZ         1    4    3    3
 -5  SXY         1    4    1    2
 -5  SYZ         1    4    2    3
 -5  SZX         1    4    3    1
 -1        12 1.34390E+00 4.01523E+00 1.20402E+01 1.33566E+00-1.77424E-01-2.19597E-02
 -1        13-1.34390E+00-4.01523E+00-1.20402E+01 1.33566E+00-1.77424E-01 2.19597E-02
 -1        14-1.34390E+00-4.01523E+00-1.20402E+01-1.33566E+00-1.77424E-01-2.19597E-02
 -1        15 1.34390E+00 4.01523E+00 1.20402E+01-1.33566E+00-1.77424E-01 2.19597E-02
 -1        16-2.49384E-10-8.35372E-11-7.48589E-10 1.33566E+00-1.77424E-01-1.45167E-11
 -1        17-1.34390E+00-4.01523E+00-1.20402E+01 8.25052E-11-1.77424E-01 2.80735E-11
 -1        18 2.49548E-10 8.40492E-11 7.46928E-10-1.33566E+00-1.77424E-01-1.36713E-11
 -1        19 1.34390E+00 4.01523E+00 1.20402E+01-8.31705E-11-1.77424E-01-5.62614E-11
 -1        20 4.93353E-01 1.47167E+00 1.08362E+01 4.92393E-01-1.77059E-01-2.87938E-02
 -1        21-4.93353E-01-1.47167E+00-1.08362E+01 4.92393E-01-1.77059E-01 2.87938E-02
 -1        22-4.93353E-01-1.47167E+00-1.08362E+01-4.92393E-01-1.77059E-01-2.87938E-02
 -1        23 4.93353E-01 1.47167E+00 1.08362E+01-4.92393E-01-1.77059E-01 2.87938E-02
 -1        28-3.50617E-01-1.06963E+00 9.63320E+00-3.53039E-01-1.76541E-01-3.77363E-02
 -1        29 3.50617E-01 1.06963E+00-9.63320E+00-3.53039E-01-1.76541E-01 3.77363E-02
 -1        30 3.50617E-01 1.06963E+00-9.63320E+00 3.53039E-01-1.76541E-01-3.77363E-02
 -1        31-3.50617E-01-1.06963E+00 9.63320E+00 3.53039E-01-1.76541E-01 3.77363E-02
 -1        32 6.65622E-11 2.26020E-11-5.56021E-10-3.53039E-01-1.76541E-01-1.38835E-11
 -1        33 3.50617E-01 1.06963E+00-9.63320E+00-2.28654E-11-1.76541E-01 2.75221E-11
 -1        34-6.59553E-11-2.15424E-11 5.54470E-10 3.53039E-01-1.76541E-01-1.38802E-11
 -1        35-3.50617E-01-1.06963E+00 9.63320E+00 2.11501E-11-1.76541E-01-5.52857E-11
 -1        36-1.27818E-01-3.91064E-01 8.43017E+00-1.30304E-01-1.74586E-01-5.31883E-02
 -1        37 1.27818E-01 3.91064E-01-8.43017E+00-1.30304E-01-1.74586E-01 5.31883E-02
 -1        38 1.27818E-01 3.91064E-01-8.43017E+00 1.30304E-01-1.74586E-01-5.31883E-02
 -1        39-1.27818E-01-3.91064E-01 8.43017E+00 1.30304E-01-1.74586E-01 5.31883E-02
 -1        44 9.29987E-02 2.86088E-01 7.22441E+00 9.27143E-02-1.72955E-01-6.57551E-02
 -1        45-9.29987E-02-2.86088E-01-7.22441E+00 9.27143E-02-1.72955E-01 6.57551E-02
 -1        46-9.29987E-02-2.86088E-01-7.22441E+00-9.27143E-02-1.72955E-01-6.57551E-02
 -1        47 9.29987E-02 2.86088E-01 7.22441E+00-9.27143E-02-1.72955E-01 6.57551E-02
 -1        48-1.78277E-11-7.56664E-12-3.69656E-10 9.27143E-02-1.72955E-01-1.22574E-11
 -1        49-9.29987E-02-2.86088E-01-7.22441E+00 5.41765E-12-1.72955E-01 2.58797E-11
 -1        50 1.74437E-11 6.76459E-12 3.68221E-10-9.27143E-02-1.72955E-01-1.24545E-11
 -1        51 9.29987E-02 2.86088E-01 7.22441E+00-5.73263E-12-1.72955E-01-5.05916E-11
 -1        52 3.36037E-02 1.03153E-01 6.01865E+00 3.50068E-02-1.74051E-01-5.69917E-02
 -1        53-3.36037E-02-1.03153E-01-6.01865E+00 3.50068E-02-1.74051E-01 5.69917E-02
 -1        54-3.36037E-02-1.03153E-01-6.01865E+00-3.50068E-02-1.74051E-01-5.69917E-02
 -1        55 3.36037E-02 1.03153E-01 6.01865E+00-3.50068E-02-1.74051E-01 5.69917E-02
 -1        60-2.30181E-02-7.81912E-02 4.81541E+00-2.32920E-02-1.74745E-01-5.24531E-02
 -1        61 2.30181E-02 7.81912E-02-4.81541E+00-2.32920E-02-1.74745E-01 5.24531E-02
 -1        62 2.30181E-02 7.81912E-02-4.81541E+00 2.32920E-02-1.74745E-01-5.24531E-02
 -1        63-2.30181E-02-7.81912E-02 4.81541E+00 2.32920E-02-1.74745E-01 5.24531E-02
 -1        64 5.15723E-12 4.52934E-12-2.07080E-10-2.32920E-02-1.74745E-01-1.14180E-11
 -1        65 2.30181E-02 7.81912E-02-4.81541E+00-5.72441E-13-1.74745E-01 2.12069E-11
 -1        66-5.43370E-12-7.75903E-12 2.05007E-10 2.32920E-02-1.74745E-01-1.13269E-11
 -1        67-2.30181E-02-7.81912E-02 4.81541E+00 1.52160E-12-1.74745E-01-4.39519E-11
 -1        68-1.13205E-02-2.48569E-02 3.61218E+00-1.09862E-02-1.74314E-01-5.18582E-02
 -1        69 1.13205E-02 2.48569E-02-3.61218E+00-1.09862E-02-1.74314E-01 5.18582E-02
 -1        70 1.13205E-02 2.48569E-02-3.61218E+00 1.09862E-02-1.74314E-01-5.18582E-02
 -1        71-1.13205E-02-2.48569E-02 3.61218E+00 1.09862E-02-1.74314E-01 5.18582E-02
 -1        76 2.79525E-03 2.90104E-02 2.40830E+00 3.77031E-04-1.74823E-01-5.66793E-02
 -1        77-2.79525E-03-2.90104E-02-2.40830E+00 3.77031E-04-1.74823E-01 5.66793E-02
 -1        78-2.79525E-03-2.90104E-02-2.40830E+00-3.77031E-04-1.74823E-01-5.66793E-02
 -1        79 2.79525E-03 2.90104E-02 2.40830E+00-3.77031E-04-1.74823E-01 5.66793E-02
 -1        80 1.03913E-12 1.47977E-12-5.01683E-11 3.77031E-04-1.74823E-01-8.38145E-12
 -1        81-2.79525E-03-2.90104E-02-2.40830E+00 2.76132E-12-1.74823E-01 1.14755E-11
 -1        82 3.23830E-12 9.31521E-13 5.08482E-11-3.77031E-04-1.74823E-01-8.13040E-12
 -1        83 2.79525E-03 2.90104E-02 2.40830E+00 2.51320E-12-1.74823E-01-2.79873E-11
 -1        84 9.74885E-03-3.88305E-03 1.20443E+00 1.04526E-02-1.75184E-01-5.73962E-02
 -1        85-9.74885E-03 3.88305E-03-1.20443E+00 1.04526E-02-1.75184E-01 5.73962E-02
 -1        86-9.74885E-03 3.88305E-03-1.20443E+00-1.04526E-02-1.75184E-01-5.73962E-02
 -1        87 9.74885E-03-3.88305E-03 1.20443E+00-1.04526E-02-1.75184E-01 5.73962E-02
 -1        92 6.91631E-03-3.97417E-02 4.57660E-04 2.39386E-02-1.74835E-01-4.92488E-02
 -1        93-6.91631E-03 3.97417E-02-4.57660E-04 2.39386E-02-1.74835E-01 4.92488E-02
 -1        94-6.91631E-03 3.97417E-02-4.57660E-04-2.39386E-02-1.74835E-01-4.92488E-02
 -1        95 6.91631E-03-3.97417E-02 4.57660E-04-2.39386E-02-1.74835E-01 4.92488E-02
 -1        96-2.36924E-12-5.09872E-12-1.78305E-13 2.39386E-02-1.74835E-01-2.26646E-12
 -1        97-6.91631E-03 3.97417E-02-4.57660E-04 6.26934E-12-1.74835E-01 3.35309E-12
 -1        98-4.65899E-12-2.00429E-12-4.77290E-12-2.39386E-02-1.74835E-01-3.30041E-12
 -1        99 6.91631E-03-3.97417E-02 4.57660E-04 5.15360E-12-1.74835E-01-8.91996E-12
 -3
    1PSTEP                         3           1           2          
    1PGM                1.000000E+00                                  
    1PGK                4.162203E+04                                  
    1PHID                         -1                                  
    1PSUBC                         0                                  
    1PMODE                         1                                  
  100CL  102 32.46996095          68                     2    2MODAL      1
 -4  DISP        4    1
 -5  D1          1    2    1    0
 -5  D2          1    2    2    0
 -5  D3          1    2    3    0
 -5  ALL         1    2    0    0    1ALL
 -1        12 2.69855E-03 1.91485E-02-5.67539E-14
 -1        13-2.69855E-03-1.91485E-02 5.67539E-14
 -1        14 2.69855E-03 1.91485E-02-5.67539E-14
 -1        15-2.69855E-03-1.91485E-02 5.67539E-14
 -1        16-1.94705E-14-4.66727E-14 0.00000E+00
 -1        17-4.66727E-14-1.28023E-14 0.00000E+00
 -1        18 1.94705E-14 4.66727E-14 0.00000E+00
 -1        19 4.66727E-14 1.28023E-14 0.00000E+00
 -1        20-4.67000E-01-4.89995E-02-1.93588E-01
 -1        21-4.71835E-01-8.33080E-02-2.57103E-01
 -1        22-4.67000E-01-4.89995E-02 1.93588E-01
 -1        23-4.71835E-01-8.33080E-02 2.57103E-01
 -1        28-1.80997E+00-2.40727E-01-3.75137E-01
 -1        29-1.81409E+00-2.70001E-01-4.98216E-01
 -1        30-1.80997E+00-2.40727E-01 3.75137E-01
 -1        31-1.81409E+00-2.70001E-01 4.98216E-01
 -1        32-1.82197E+00-2.53957E-01-4.36574E-01
 -1        33-1.80204E+00-2.56765E-01-6.15251E-02
 -1        34-1.82197E+00-2.53957E-01 4.36574E-01
 -1        35-1.80204E+00-2.56765E-01 6.15251E-02
 -1        36-3.95079E+00-5.44988E-01-5.32518E-01
 -1        37-3.95418E+00-5.69037E-01-7.07233E-01
 -1        38-3.95079E+00-5.44988E-01 5.32518E-01
 -1        39-3.95418E+00-5.69037E-01 7.07233E-01
 -1        44-6.74101E+00-9.41004E-01-6.54328E-01
 -1        45-6.74360E+00-9.59346E-01-8.69008E-01
 -1        46-6.74101E+00-9.41004E-01 6.54328E-01
 -1        47-6.74360E+00-9.59346E-01 8.69008E-01
 -1        48-6.74624E+00-9.49624E-01-7.61417E-01
 -1        49-6.73840E+00-9.50729E-01-1.07304E-01
 -1        50-6.74624E+00-9.49624E-01 7.61417E-01
 -1        51-6.73840E+00-9.50729E-01 1.07304E-01
 -1        52-1.00213E+01-1.40553E+00-7.45103E-01
 -1        53-1.00232E+01-1.41929E+00-9.89566E-01
 -1        54-1.00213E+01-1.40553E+00 7.45103E-01
 -1        55-1.00232E+01-1.41929E+00 9.89566E-01
 -1        60-1.36642E+01-1.92115E+00-8.10575E-01
 -1        61-1.36655E+01-1.93035E+00-1.07652E+00
 -1        62-1.36642E+01-1.92115E+00 8.10575E-01
 -1        63-1.36655E+01-1.93035E+00 1.07652E+00
 -1        64-1.36673E+01-1.92540E+00-9.43424E-01
 -1        65-1.36624E+01-1.92610E+00-1.32954E-01
 -1        66-1.36673E+01-1.92540E+00 9.43424E-01
 -1        67-1.36624E+01-1.92610E+00 1.32954E-01
 -1        68-1.75544E+01-2.47115E+00-8.52992E-01
 -1        69-1.75552E+01-2.47674E+00-1.13285E+00
 -1        70-1.75544E+01-2.47115E+00 8.52992E-01
 -1        71-1.75552E+01-2.47674E+00 1.13285E+00
 -1        76-2.15943E+01-3.04200E+00-8.75815E-01
 -1        77-2.15947E+01-3.04451E+00-1.16316E+00
 -1        78-2.15943E+01-3.04200E+00 8.75815E-01
 -1        79-2.15947E+01-3.04451E+00 1.16316E+00
 -1        80-2.15950E+01-3.04318E+00-1.01939E+00
 -1        81-2.15940E+01-3.04333E+00-1.43660E-01
 -1        82-2.15950E+01-3.04318E+00 1.01939E+00
 -1        83-2.15940E+01-3.04333E+00 1.43660E-01
 -1        84-2.57002E+01-3.62149E+00-8.84510E-01
 -1        85-2.57003E+01-3.62224E+00-1.17471E+00
 -1        86-2.57002E+01-3.62149E+00 8.84510E-01
 -1        87-2.57003E+01-3.62224E+00 1.17471E+00
 -1        92-2.98264E+01-4.20339E+00-8.85888E-01
 -1        93-2.98264E+01-4.20333E+00-1.17654E+00
 -1        94-2.98264E+01-4.20339E+00 8.85888E-01
 -1        95-2.98264E+01-4.20333E+00 1.17654E+00
 -1        96-2.98264E+01-4.20337E+00-1.03122E+00
 -1        97-2.98265E+01-4.20335E+00-1.45327E-01
 -1        98-2.98264E+01-4.20337E+00 1.03122E+00
 -1        99-2.98265E+01-4.20335E+00 1.45327E-01
 -3
    1PSTEP                         4           1           2          
    1PGM                1.000000E+00                                  
    1PGK                4.162203E+04                                  
    1PHID                         -1                                  
    1PSUBC                         0                                  
    1PMODE                         2                                  
  100CL  103 32.46996096          68                     2    3MODAL      1
 -4  DISP        4    1
 -5  D1          1    2    1    0
 -5  D2          1    2    2    0
 -5  D3          1    2    3    0
 -5  ALL         1    2    0    0    1ALL
 -1        12 1.91485E-02-2.69855E-03-6.53921E-14
 -1        13-1.91485E-02 2.69855E-03 6.53921E-14
 -1        14 1.91485E-02-2.69855E-03-6.53921E-14
 -1        15-1.91485E-02 2.69855E-03 6.53921E-14
 -1        16-2.77556E-17-4.69486E-14 0.00000E+00
 -1        17-4.69486E-14 2.45247E-14 0.00000E+00
 -1        18 2.77556E-17 4.69486E-14 0.00000E+00
 -1        19 4.69486E-14-2.45247E-14 0.00000E+00
 -1        20 8.33080E-02-4.71835E-01 2.57103E-01
 -1        21 4.89995E-02-4.67000E-01-1.93588E-01
 -1        22 8.33080E-02-4.71835E-01-2.57103E-01
 -1        23 4.89995E-02-4.67000E-01 1.93588E-01
 -1        28 2.70001E-01-1.81409E+00 4.98216E-01
 -1        29 2.40727E-01-1.80997E+00-3.75137E-01
 -1        30 2.70001E-01-1.81409E+00-4.98216E-01
 -1        31 2.40727E-01-1.80997E+00 3.75137E-01
 -1        32 2.56765E-01-1.80204E+00 6.15251E-02
 -1        33 2.53957E-01-1.82197E+00-4.36574E-01
 -1        34 2.56765E-01-1.80204E+00-6.15251E-02
 -1        35 2.53957E-01-1.82197E+00 4.36574E-01
 -1        36 5.69037E-01-3.95418E+00 7.07233E-01
 -1        37 5.44988E-01-3.95079E+00-5.32518E-01
 -1        38 5.69037E-01-3.95418E+00-7.07233E-01
 -1        39 5.44988E-01-3.95079E+00 5.32518E-01
 -1        44 9.59346E-01-6.74360E+00 8.69008E-01
 -1        45 9.41004E-01-6.74101E+00-6.54328E-01
 -1        46 9.59346E-01-6.74360E+00-8.69008E-01
 -1        47 9.41004E-01-6.74101E+00 6.54328E-01
 -1        48 9.50729E-01-6.73840E+00 1.07304E-01
 -1        49 9.49624E-01-6.74624E+00-7.61417E-01
 -1        50 9.50729E-01-6.73840E+00-1.07304E-01
 -1        51 9.49624E-01-6.74624E+00 7.61417E-01
 -1        52 1.41929E+00-1.00232E+01 9.89566E-01
 -1        53 1.40553E+00-1.00213E+01-7.45103E-01
 -1        54 1.41929E+00-1.00232E+01-9.89566E-01
 -1        55 1.40553E+00-1.00213E+01 7.45103E-01
 -1        60 1.93035E+00-1.36655E+01 1.07652E+00
 -1        61 1.92115E+00-1.36642E+01-8.10575E-01
 -1        62 1.93035E+00-1.36655E+01-1.07652E+00
 -1        63 1.92115E+00-1.36642E+01 8.10575E-01
 -1        64 1.92610E+00-1.36624E+01 1.32954E-01
 -1        65 1.92540E+00-1.36673E+01-9.43424E-01
 -1        66 1.92610E+00-1.36624E+01-1.32954E-01
 -1        67 1.92540E+00-1.36673E+01 9.43424E-01
 -1        68 2.47674E+00-1.75552E+01 1.13285E+00
 -1        69 2.47115E+00-1.75544E+01-8.52992E-01
 -1        70 2.47674E+00-1.75552E+01-1.13285E+00
 -1        71 2.47115E+00-1.75544E+01 8.52992E-01
 -1        76 3.04451E+00-2.15947E+01 1.16316E+00
 -1        77 3.04200E+00-2.15943E+01-8.75815E-01
 -1        78 3.04451E+00-2.15947E+01-1.16316E+00
 -1        79 3.04200E+00-2.15943E+01 8.75815E-01
 -1        80 3.04333E+00-2.15940E+01 1.43660E-01
 -1        81 3.04318E+00-2.15950E+01-1.01939E+00
 -1        82 3.04333E+00-2.15940E+01-1.43660E-01
 -1        83 3.04318E+00-2.15950E+01 1.01939E+00
 -1        84 3.62224E+00-2.57003E+01 1.17471E+00
 -1        85 3.62149E+00-2.57002E+01-8.84510E-01
 -1        86 3.62224E+00-2.57003E+01-1.17471E+00
 -1        87 3.62149E+00-2.57002E+01 8.84510E-01
 -1        92 4.20333E+00-2.98264E+01 1.17654E+00
 -1        93 4.20339E+00-2.98264E+01-8.85888E-01
 -1        94 4.20333E+00-2.98264E+01-1.17654E+00
 -1        95 4.20339E+00-2.98264E+01 8.85888E-01
 -1        96 4.20335E+00-2.98265E+01 1.45327E-01
 -1        97 4.20337E+00-2.98264E+01-1.03122E+00
 -1        98 4.20335E+00-2.98265E+01-1.45327E-01
 -1        99 4.20337E+00-2.98264E+01 1.03122E+00
 -3
    1PSTEP                         5           1           2          
    1PGM                1.000000E+00                                  
    1PGK                1.583191E+06                                  
    1PHID                         -1                                  
    1PSUBC                         0                                  
    1PMODE                         3                                  
  100CL  104 200.2565729          68                     2    4MODAL      1
 -4  DISP        4    1
 -5  D1          1    2    1    0
 -5  D2          1    2    2    0
 -5  D3          1    2    3    0
 -5  ALL         1    2    0    0    1ALL
 -1        12-1.46855E-02-1.16017E-01 9.89694E-14
 -1        13 1.46855E-02 1.16017E-01-9.89694E-14
 -1        14-1.46855E-02-1.16017E-01 9.89694E-14
 -1        15 1.46855E-02 1.16017E-01-9.89694E-14
 -1        16 1.16851E-14 9.32865E-14 0.00000E+00
 -1        17 9.32865E-14 9.20097E-15 0.00000E+00
 -1        18-1.16851E-14-9.32865E-14 0.00000E+00
 -1        19-9.32865E-14-9.20097E-15 0.00000E+00
 -1        20 2.75407E+00 2.82754E-01 9.85840E-01
 -1        21 2.77102E+00 4.16618E-01 1.27159E+00
 -1        22 2.75407E+00 2.82754E-01-9.85840E-01
 -1        23 2.77102E+00 4.16618E-01-1.27159E+00
 -1        28 8.77485E+00 1.10178E+00 1.42785E+00
 -1        29 8.77716E+00 1.11998E+00 1.84171E+00
 -1        30 8.77485E+00 1.10178E+00-1.42785E+00
 -1        31 8.77716E+00 1.11998E+00-1.84171E+00
 -1        32 8.79680E+00 1.10821E+00 1.63065E+00
 -1        33 8.75497E+00 1.11351E+00 2.06410E-01
 -1        34 8.79680E+00 1.10821E+00-1.63065E+00
 -1        35 8.75497E+00 1.11351E+00-2.06410E-01
 -1        36 1.54636E+01 1.99165E+00 1.30170E+00
 -1        37 1.54548E+01 1.92203E+00 1.67900E+00
 -1        38 1.54636E+01 1.99165E+00-1.30170E+00
 -1        39 1.54548E+01 1.92203E+00-1.67900E+00
 -1        44 2.03324E+01 2.64559E+00 6.63202E-01
 -1        45 2.03139E+01 2.49946E+00 8.55433E-01
 -1        46 2.03324E+01 2.64559E+00-6.63202E-01
 -1        47 2.03139E+01 2.49946E+00-8.55433E-01
 -1        48 2.02805E+01 2.57797E+00 7.57208E-01
 -1        49 2.03662E+01 2.56713E+00 9.58482E-02
 -1        50 2.02805E+01 2.57797E+00-7.57208E-01
 -1        51 2.03662E+01 2.56713E+00-9.58482E-02
 -1        52 2.13096E+01 2.78149E+00-2.82065E-01
 -1        53 2.12880E+01 2.61056E+00-3.63822E-01
 -1        54 2.13096E+01 2.78149E+00 2.82065E-01
 -1        55 2.12880E+01 2.61056E+00 3.63822E-01
 -1        60 1.77156E+01 2.32608E+00-1.29215E+00
 -1        61 1.76941E+01 2.15611E+00-1.66668E+00
 -1        62 1.77156E+01 2.32608E+00 1.29215E+00
 -1        63 1.76941E+01 2.15611E+00 1.66668E+00
 -1        64 1.76615E+01 2.24659E+00-1.47829E+00
 -1        65 1.77483E+01 2.23562E+00-1.87123E-01
 -1        66 1.76615E+01 2.24659E+00 1.47829E+00
 -1        67 1.77483E+01 2.23562E+00 1.87123E-01
 -1        68 9.60306E+00 1.27833E+00-2.16314E+00
 -1        69 9.58692E+00 1.15076E+00-2.79013E+00
 -1        70 9.60306E+00 1.27833E+00 2.16314E+00
 -1        71 9.58692E+00 1.15076E+00 2.79013E+00
 -1        76-1.91496E+00-2.04484E-01-2.76128E+00
 -1        77-1.92472E+00-2.81547E-01-3.56164E+00
 -1        78-1.91496E+00-2.04484E-01 2.76128E+00
 -1        79-1.92472E+00-2.81547E-01 3.56164E+00
 -1        80-1.93822E+00-2.40687E-01-3.15940E+00
 -1        81-1.90145E+00-2.45341E-01-3.99920E-01
 -1        82-1.93822E+00-2.40687E-01 3.15940E+00
 -1        83-1.90145E+00-2.45341E-01 3.99920E-01
 -1        84-1.54053E+01-1.93880E+00-3.03669E+00
 -1        85-1.54082E+01-1.96160E+00-3.91688E+00
 -1        86-1.54053E+01-1.93880E+00 3.03669E+00
 -1        87-1.54082E+01-1.96160E+00 3.91688E+00
 -1        92-2.95763E+01-3.74229E+00-3.09032E+00
 -1        93-2.95766E+01-3.74535E+00-3.98606E+00
 -1        94-2.95763E+01-3.74229E+00 3.09032E+00
 -1        95-2.95766E+01-3.74535E+00 3.98606E+00
 -1        96-2.95734E+01-3.74425E+00-3.53734E+00
 -1        97-2.95799E+01-3.74343E+00-4.47760E-01
 -1        98-2.95734E+01-3.74425E+00 3.53734E+00
 -1        99-2.95799E+01-3.74343E+00 4.47760E-01
 -3
    1PSTEP                         6           1           2          
    1PGM                1.000000E+00                                  
    1PGK                1.583191E+06                                  
    1PHID                         -1                                  
    1PSUBC                         0                                  
    1PMODE                         4                                  
  100CL  105 200.2565729          68                     2    5MODAL      1
 -4  DISP        4    1
 -5  D1          1    2    1    0
 -5  D2          1    2    2    0
 -5  D3          1    2    3    0
 -5  ALL         1    2    0    0    1ALL
 -1        12-1.16017E-01 1.46855E-02 7.09433E-14
 -1        13 1.16017E-01-1.46855E-02-7.09433E-14
 -1        14-1.16017E-01 1.46855E-02 7.09433E-14
 -1        15 1.16017E-01-1.46855E-02-7.09433E-14
 -1        16-8.20871E-15 5.42899E-14 0.00000E+00
 -1        17 5.42899E-14-4.50404E-14 0.00000E+00
 -1        18 8.20871E-15-5.42899E-14 0.00000E+00
 -1        19-5.42899E-14 4.50404E-14 0.00000E+00
 -1        20-4.16618E-01 2.77102E+00-1.27159E+00
 -1        21-2.82754E-01 2.75407E+00 9.85840E-01
 -1        22-4.16618E-01 2.77102E+00 1.27159E+00
 -1        23-2.82754E-01 2.75407E+00-9.85840E-01
 -1        28-1.11998E+00 8.77716E+00-1.84171E+00
 -1        29-1.10178E+00 8.77485E+00 1.42785E+00
 -1        30-1.11998E+00 8.77716E+00 1.84171E+00
 -1        31-1.10178E+00 8.77485E+00-1.42785E+00
 -1        32-1.11351E+00 8.75497E+00-2.06410E-01
 -1        33-1.10821E+00 8.79680E+00 1.63065E+00
 -1        34-1.11351E+00 8.75497E+00 2.06410E-01
 -1        35-1.10821E+00 8.79680E+00-1.63065E+00
 -1        36-1.92203E+00 1.54548E+01-1.67900E+00
 -1        37-1.99165E+00 1.54636E+01 1.30170E+00
 -1        38-1.92203E+00 1.54548E+01 1.67900E+00
 -1        39-1.99165E+00 1.54636E+01-1.30170E+00
 -1        44-2.49946E+00 2.03139E+01-8.55433E-01
 -1        45-2.64559E+00 2.03324E+01 6.63202E-01
 -1        46-2.49946E+00 2.03139E+01 8.55433E-01
 -1        47-2.64559E+00 2.03324E+01-6.63202E-01
 -1        48-2.56713E+00 2.03662E+01-9.58482E-02
 -1        49-2.57797E+00 2.02805E+01 7.57208E-01
 -1        50-2.56713E+00 2.03662E+01 9.58482E-02
 -1        51-2.57797E+00 2.02805E+01-7.57208E-01
 -1        52-2.61056E+00 2.12880E+01 3.63822E-01
 -1        53-2.78149E+00 2.13096E+01-2.82065E-01
 -1        54-2.61056E+00 2.12880E+01-3.63822E-01
 -1        55-2.78149E+00 2.13096E+01 2.82065E-01
 -1        60-2.15611E+00 1.76941E+01 1.66668E+00
 -1        61-2.32608E+00 1.77156E+01-1.29215E+00
 -1        62-2.15611E+00 1.76941E+01-1.66668E+00
 -1        63-2.32608E+00 1.77156E+01 1.29215E+00
 -1        64-2.23562E+00 1.77483E+01 1.87123E-01
 -1        65-2.24659E+00 1.76615E+01-1.47829E+00
 -1        66-2.23562E+00 1.77483E+01-1.87123E-01
 -1        67-2.24659E+00 1.76615E+01 1.47829E+00
 -1        68-1.15076E+00 9.58692E+00 2.79013E+00
 -1        69-1.27833E+00 9.60306E+00-2.16314E+00
 -1        70-1.15076E+00 9.58692E+00-2.79013E+00
 -1        71-1.27833E+00 9.60306E+00 2.16314E+00
 -1        76 2.81547E-01-1.92472E+00 3.56164E+00
 -1        77 2.04484E-01-1.91496E+00-2.76128E+00
 -1        78 2.81547E-01-1.92472E+00-3.56164E+00
 -1        79 2.04484E-01-1.91496E+00 2.76128E+00
 -1        80 2.45341E-01-1.90145E+00 3.99920E-01
 -1        81 2.40687E-01-1.93822E+00-3.15940E+00
 -1        82 2.45341E-01-1.90145E+00-3.99920E-01
 -1        83 2.40687E-01-1.93822E+00 3.15940E+00
 -1        84 1.96160E+00-1.54082E+01 3.91688E+00
 -1        85 1.93880E+00-1.54053E+01-3.03669E+00
 -1        86 1.96160E+00-1.54082E+01-3.91688E+00
 -1        87 1.93880E+00-1.54053E+01 3.03669E+00
 -1        92 3.74535E+00-2.95766E+01 3.98606E+00
 -1        93 3.74229E+00-2.95763E+01-3.09032E+00
 -1        94 3.74535E+00-2.95766E+01-3.98606E+00
 -1        95 3.74229E+00-2.95763E+01 3.09032E+00
 -1        96 3.74343E+00-2.95799E+01 4.47760E-01
 -1        97 3.74425E+00-2.95734E+01-3.53734E+00
 -1        98 3.74343E+00-2.95799E+01-4.47760E-01
 -1        99 3.74425E+00-2.95734E+01 3.53734E+00
 -3
    1PSTEP                         7           1           2          
    1PGM                1.000000E+00                                  
    1PGK                8.462652E+06                                  
    1PHID                         -1                                  
    1PSUBC                         0                                  
    1PMODE                         5                                  
  100CL  106 462.9918729          68                     2    6MODAL      1
 -4  DISP        4    1
 -5  D1          1    2    1    0
 -5  D2          1    2    2    0
 -5  D3          1    2    3    0
 -5  ALL         1    2    0    0    1ALL
 -1        12-2.46719E-13 2.32078E-13 3.67484E-14
 -1        13 1.26121E-13-1.89529E-13-3.67484E-14
 -1        14-8.35720E-14 1.77525E-13 3.67484E-14
 -1        15 2.04170E-13-2.20074E-13-3.67484E-14
 -1        16-6.02990E-14 2.12746E-14 0.00000E+00
 -1        17 2.12746E-14-6.00214E-15 0.00000E+00
 -1        18 6.02990E-14-2.12746E-14 0.00000E+00
 -1        19-2.12746E-14 6.00214E-15 0.00000E+00
 -1        20 3.06323E+00 3.06323E+00-3.03579E-12
 -1        21-3.06323E+00 3.06323E+00 3.10862E-15
 -1        22-3.06323E+00-3.06323E+00 2.48512E-12
 -1        23 3.06323E+00-3.06323E+00-4.97380E-13
 -1        28 6.05118E+00 6.05118E+00-2.91145E-12
 -1        29-6.05118E+00 6.05118E+00-2.75335E-13
 -1        30-6.05118E+00-6.05118E+00 1.86429E-12
 -1        31 6.05118E+00-6.05118E+00-7.86926E-13
 -1        32-9.40359E-12 6.05118E+00-1.54010E-12
 -1        33-6.05118E+00 1.12248E-11 7.63833E-13
 -1        34-9.27258E-12-6.05118E+00 5.24025E-13
 -1        35 6.05118E+00 1.12435E-11-1.82609E-12
 -1        36 8.88984E+00 8.88984E+00-1.81188E-13
 -1        37-8.88984E+00 8.88984E+00-4.84945E-13
 -1        38-8.88984E+00-8.88984E+00-1.23102E-12
 -1        39 8.88984E+00-8.88984E+00-7.42517E-13
 -1        44 1.15100E+01 1.15100E+01 3.76055E-12
 -1        45-1.15100E+01 1.15100E+01-1.03562E-12
 -1        46-1.15100E+01-1.15100E+01-5.42855E-12
 -1        47 1.15100E+01-1.15100E+01-5.40012E-13
 -1        48-6.58762E-12 1.15100E+01 1.35181E-12
 -1        49-1.15100E+01 8.87646E-12-3.22231E-12
 -1        50-6.41798E-12-1.15100E+01-2.98606E-12
 -1        51 1.15100E+01 8.94573E-12 1.59162E-12
 -1        52 1.38462E+01 1.38462E+01 5.90550E-12
 -1        53-1.38462E+01 1.38462E+01-1.43885E-12
 -1        54-1.38462E+01-1.38462E+01-7.53353E-12
 -1        55 1.38462E+01-1.38462E+01-2.52243E-13
 -1        60 1.58422E+01 1.58422E+01 4.35740E-12
 -1        61-1.58422E+01 1.58422E+01-1.26743E-12
 -1        62-1.58422E+01-1.58422E+01-5.93747E-12
 -1        63 1.58422E+01-1.58422E+01-3.37508E-13
 -1        64 1.73657E-11 1.58422E+01 1.55698E-12
 -1        65-1.58422E+01-1.92237E-11-3.59268E-12
 -1        66 1.72626E-11-1.58422E+01-3.20366E-12
 -1        67 1.58422E+01-1.89697E-11 2.01261E-12
 -1        68 1.74473E+01 1.74473E+01 3.86580E-13
 -1        69-1.74473E+01 1.74473E+01-3.78364E-13
 -1        70-1.74473E+01-1.74473E+01-1.61959E-12
 -1        71 1.74473E+01-1.74473E+01-9.51461E-13
 -1        76 1.86236E+01 1.86236E+01-4.14957E-12
 -1        77-1.86236E+01 1.86236E+01-1.35003E-13
 -1        78-1.86236E+01-1.86236E+01 3.02336E-12
 -1        79 1.86236E+01-1.86236E+01-9.67226E-13
 -1        80 2.19513E-11 1.86236E+01-2.18758E-12
 -1        81-1.86236E+01-2.22258E-11 1.42908E-12
 -1        82 2.16307E-11-1.86236E+01 1.01075E-12
 -1        83 1.86236E+01-2.18603E-11-2.56239E-12
 -1        84 1.93405E+01 1.93405E+01-8.22986E-12
 -1        85-1.93405E+01 1.93405E+01-9.85878E-13
 -1        86-1.93405E+01-1.93405E+01 6.83364E-12
 -1        87 1.93405E+01-1.93405E+01-6.57252E-13
 -1        92 1.95820E+01 1.95820E+01-9.67404E-12
 -1        93-1.95820E+01 1.95820E+01-4.74287E-13
 -1        94-1.95820E+01-1.95820E+01 7.98117E-12
 -1        95 1.95820E+01-1.95820E+01 1.42109E-13
 -1        96-7.38609E-12 1.95820E+01-5.03775E-12
 -1        97-1.95820E+01 6.25566E-12 3.72147E-12
 -1        98-7.65077E-12-1.95820E+01 3.98614E-12
 -1        99 1.95820E+01 6.75104E-12-4.87077E-12
 -3
 9999
