    1C
    1UUSER                                                              
    1UDATE              25.january.2020                                 
    1UTIME              14:48:22                                        
    1UHOST                                                              
    1UPGM               CalculiX                                        
    1UVERSION           Version 2.16                             
    1UCOMPILETIME       Tue  7 Jan 19:57:43 CET 2020                    
    1UDIR                                                               
    1UDBN                                                               
    1UMAT    1EL                                                        
    1UMAT    2SI1                                                       
    2C                            16                                     1
 -1         1 1.00000E+00 1.00000E+00-1.49012E-08
 -1         2 1.00000E+00 0.00000E+00-1.49012E-08
 -1         3 1.00000E+00 0.00000E+00 1.00000E+00
 -1         4 1.00000E+00 1.00000E+00 1.00000E+00
 -1         5-7.45058E-09 1.00000E+00-1.49012E-08
 -1         6-7.45058E-09 0.00000E+00-1.49012E-08
 -1         7-7.45058E-09 0.00000E+00 1.00000E+00
 -1         8-7.45058E-09 1.00000E+00 1.00000E+00
 -1         9 5.00000E-01 6.41421E-01 1.00000E+00
 -1        10 6.41421E-01 5.00000E-01 1.00000E+00
 -1        11 6.41421E-01 5.00000E-01 1.20000E+00
 -1        12 5.00000E-01 6.41421E-01 1.20000E+00
 -1        13 3.58579E-01 5.00000E-01 1.00000E+00
 -1        14 5.00000E-01 3.58579E-01 1.00000E+00
 -1        15 5.00000E-01 3.58579E-01 1.20000E+00
 -1        16 3.58579E-01 5.00000E-01 1.20000E+00
 -3
    3C                             2                                     1
 -1         1    1    0    1
 -2         1         2         3         4         5         6         7         8
 -1         2    1    0    1
 -2         9        10        11        12        13        14        15        16
 -3
    1PSTEP                         1           1           1          
  100CL  101 1.00000E-01          16                     0    1           1
 -4  DISP        4    1
 -5  D1          1    2    1    0
 -5  D2          1    2    2    0
 -5  D3          1    2    3    0
 -5  ALL         1    2    0    0    1ALL
 -1         1 0.00000E+00 0.00000E+00 0.00000E+00
 -1         2 0.00000E+00 0.00000E+00 0.00000E+00
 -1         3 3.71336E-07-3.70543E-07-1.73293E-06
 -1         4 3.71549E-07 3.72332E-07-1.73383E-06
 -1         5 0.00000E+00 0.00000E+00 0.00000E+00
 -1         6 0.00000E+00 0.00000E+00 0.00000E+00
 -1         7-3.71336E-07-3.70543E-07-1.73293E-06
 -1         8-3.71549E-07 3.72332E-07-1.73383E-06
 -1         9-1.16873E-14 4.03279E-06-2.73412E-06
 -1        10 2.01992E-06 2.01217E-06-2.73359E-06
 -1        11 2.02109E-06 2.01578E-06-1.22585E-05
 -1        12 0.00000E+00 4.03798E-06-1.22610E-05
 -1        13-2.01992E-06 2.01217E-06-2.73359E-06
 -1        14-1.16683E-14-9.29506E-09-2.73234E-06
 -1        15 0.00000E+00 0.00000E+00-1.22537E-05
 -1        16-2.02109E-06 2.01578E-06-1.22585E-05
 -3
    1PSTEP                         2           1           1          
  100CL  101 1.00000E-01          16                     0    1           1
 -4  STRESS      6    1
 -5  SXX         1    4    1    1
 -5  SYY         1    4    2    2
 -5  SZZ         1    4    3    3
 -5  SXY         1    4    1    2
 -5  SYZ         1    4    2    3
 -5  SZX         1    4    3    1
 -1         1-2.10057E-01-2.10057E-01-4.90123E-01 2.23909E-08 3.00726E-02 3.00094E-02
 -1         2-2.09948E-01-2.09948E-01-4.89868E-01-2.21827E-08-2.99281E-02 2.99922E-02
 -1         3 9.00007E-02 9.00334E-02-3.09889E-01 1.71818E-05-3.00009E-02 2.99922E-02
 -1         4 9.00120E-02 8.99759E-02-3.10092E-01 1.72286E-05 2.99999E-02 3.00094E-02
 -1         5-2.10057E-01-2.10057E-01-4.90123E-01-2.23908E-08 3.00726E-02-3.00094E-02
 -1         6-2.09948E-01-2.09948E-01-4.89868E-01 2.21827E-08-2.99281E-02-2.99922E-02
 -1         7 9.00007E-02 9.00334E-02-3.09889E-01-1.71840E-05-3.00009E-02-2.99922E-02
 -1         8 9.00120E-02 8.99759E-02-3.10092E-01-1.72263E-05 2.99999E-02-3.00094E-02
 -1         9-2.16785E-03-1.37552E-03-1.00029E+01 1.59971E-11 1.79317E-03-4.57486E-11
 -1        10-6.27670E-04 6.49678E-04-9.99979E+00 2.42506E-04 9.50053E-04 2.63262E-04
 -1        11-6.55895E-05-2.45934E-03-1.00006E+01-1.83184E-03-6.21709E-04-1.99424E-04
 -1        12 1.50574E-03 2.77567E-03-1.00006E+01-2.46980E-11 6.84098E-04-2.10677E-11
 -1        13-6.27670E-04 6.49678E-04-9.99979E+00-2.42506E-04 9.50053E-04-2.63262E-04
 -1        14 1.89407E-03 3.65644E-03-9.99439E+00-2.76631E-11 3.03994E-03-5.34293E-11
 -1        15-6.55358E-04-6.71278E-03-9.99827E+00 2.92045E-11 1.00550E-03-2.87492E-11
 -1        16-6.55898E-05-2.45934E-03-1.00006E+01 1.83184E-03-6.21709E-04 1.99424E-04
 -3
    1PSTEP                         3           1           1          
  100CL  101 1.00000E-01          16                     0    1           1
 -4  CONTACT     6    1
 -5  COPEN       1    4    1    1
 -5  CSLIP1      1    4    2    2
 -5  CSLIP2      1    4    3    3
 -5  CPRESS      1    4    1    2
 -5  CSHEAR1     1    4    2    3
 -5  CSHEAR2     1    4    3    1
 -1         1 0.00000E+00 0.00000E+00 0.00000E+00 0.00000E+00 0.00000E+00 0.00000E+00
 -1         2 0.00000E+00 0.00000E+00 0.00000E+00 0.00000E+00 0.00000E+00 0.00000E+00
 -1         3 0.00000E+00 0.00000E+00 0.00000E+00 0.00000E+00 0.00000E+00 0.00000E+00
 -1         4 0.00000E+00 0.00000E+00 0.00000E+00 0.00000E+00 0.00000E+00 0.00000E+00
 -1         5 0.00000E+00 0.00000E+00 0.00000E+00 0.00000E+00 0.00000E+00 0.00000E+00
 -1         6 0.00000E+00 0.00000E+00 0.00000E+00 0.00000E+00 0.00000E+00 0.00000E+00
 -1         7 0.00000E+00 0.00000E+00 0.00000E+00 0.00000E+00 0.00000E+00 0.00000E+00
 -1         8 0.00000E+00 0.00000E+00 0.00000E+00 0.00000E+00 0.00000E+00 0.00000E+00
 -1         9-1.00052E-06-4.38313E-14 3.53879E-06 1.00052E+01-1.74016E-11 9.99577E-04
 -1        10-1.00021E-06 1.52697E-06 2.01128E-06 1.00021E+01 6.43375E-04 9.08877E-04
 -1        11 0.00000E+00 0.00000E+00 0.00000E+00 0.00000E+00 0.00000E+00 0.00000E+00
 -1        12 0.00000E+00 0.00000E+00 0.00000E+00 0.00000E+00 0.00000E+00 0.00000E+00
 -1        13-1.00021E-06-1.52697E-06 2.01128E-06 1.00021E+01-6.43375E-04 9.08877E-04
 -1        14-9.99309E-07-4.38143E-14 4.83074E-07 9.99308E+00-5.24474E-11 6.58175E-04
 -1        15 0.00000E+00 0.00000E+00 0.00000E+00 0.00000E+00 0.00000E+00 0.00000E+00
 -1        16 0.00000E+00 0.00000E+00 0.00000E+00 0.00000E+00 0.00000E+00 0.00000E+00
 -3
    1PSTEP                         4           2           1          
  100CL  102 2.00000E-01          16                     0    2           1
 -4  DISP        4    1
 -5  D1          1    2    1    0
 -5  D2          1    2    2    0
 -5  D3          1    2    3    0
 -5  ALL         1    2    0    0    1ALL
 -1         1 0.00000E+00 0.00000E+00 0.00000E+00
 -1         2 0.00000E+00 0.00000E+00 0.00000E+00
 -1         3 7.42688E-07-7.41079E-07-3.46594E-06
 -1         4 7.43128E-07 7.44716E-07-3.46780E-06
 -1         5 0.00000E+00 0.00000E+00 0.00000E+00
 -1         6 0.00000E+00 0.00000E+00 0.00000E+00
 -1         7-7.42688E-07-7.41079E-07-3.46594E-06
 -1         8-7.43128E-07 7.44716E-07-3.46780E-06
 -1         9-1.78359E-14 8.06517E-06-6.35783E-06
 -1        10 4.04010E-06 4.02362E-06-6.35632E-06
 -1        11 4.04248E-06 4.03181E-06-2.54080E-05
 -1        12 0.00000E+00 8.07645E-06-2.54136E-05
 -1        13-4.04010E-06 4.02362E-06-6.35632E-06
 -1        14-1.77951E-14-1.96243E-08-6.35290E-06
 -1        15 0.00000E+00 0.00000E+00-2.53977E-05
 -1        16-4.04248E-06 4.03181E-06-2.54080E-05
 -3
    1PSTEP                         5           2           1          
  100CL  102 2.00000E-01          16                     0    2           1
 -4  STRESS      6    1
 -5  SXX         1    4    1    1
 -5  SYY         1    4    2    2
 -5  SZZ         1    4    3    3
 -5  SXY         1    4    1    2
 -5  SYZ         1    4    2    3
 -5  SZX         1    4    3    1
 -1         1-4.20131E-01-4.20131E-01-9.80282E-01 8.94526E-08 6.01490E-02 6.00207E-02
 -1         2-4.19906E-01-4.19906E-01-9.79756E-01-8.88522E-08-5.98553E-02 5.99852E-02
 -1         3 1.80007E-01 1.80075E-01-6.19789E-01 3.54243E-05-6.00057E-02 5.99855E-02
 -1         4 1.80030E-01 1.79956E-01-6.20208E-01 3.56061E-05 5.99991E-02 6.00210E-02
 -1         5-4.20131E-01-4.20131E-01-9.80282E-01-8.94526E-08 6.01490E-02-6.00207E-02
 -1         6-4.19906E-01-4.19906E-01-9.79756E-01 8.88522E-08-5.98553E-02-5.99852E-02
 -1         7 1.80007E-01 1.80075E-01-6.19789E-01-3.54278E-05-6.00057E-02-5.99855E-02
 -1         8 1.80030E-01 1.79956E-01-6.20208E-01-3.56026E-05 5.99991E-02-6.00210E-02
 -1         9-4.43222E-03-2.77433E-03-2.00059E+01 2.22438E-11 3.69378E-03-6.33693E-11
 -1        10-1.23259E-03 1.39483E-03-1.99994E+01 4.84762E-04 1.90060E-03 4.19188E-04
 -1        11-3.53786E-05-4.89543E-03-2.00010E+01-3.66378E-03-1.24363E-03-3.94234E-04
 -1        12 2.98780E-03 5.45529E-03-2.00012E+01-3.42492E-11 1.36297E-03-2.82406E-11
 -1        13-1.23259E-03 1.39483E-03-1.99994E+01-4.84762E-04 1.90060E-03-4.19188E-04
 -1        14 3.69279E-03 7.28973E-03-1.99889E+01-4.04499E-11 5.97215E-03-7.98239E-11
 -1        15-1.33281E-03-1.35204E-02-1.99967E+01 4.25416E-11 2.01450E-03-4.46968E-11
 -1        16-3.53790E-05-4.89543E-03-2.00010E+01 3.66378E-03-1.24363E-03 3.94235E-04
 -3
    1PSTEP                         6           2           1          
  100CL  102 2.00000E-01          16                     0    2           1
 -4  CONTACT     6    1
 -5  COPEN       1    4    1    1
 -5  CSLIP1      1    4    2    2
 -5  CSLIP2      1    4    3    3
 -5  CPRESS      1    4    1    2
 -5  CSHEAR1     1    4    2    3
 -5  CSHEAR2     1    4    3    1
 -1         1 0.00000E+00 0.00000E+00 0.00000E+00 0.00000E+00 0.00000E+00 0.00000E+00
 -1         2 0.00000E+00 0.00000E+00 0.00000E+00 0.00000E+00 0.00000E+00 0.00000E+00
 -1         3 0.00000E+00 0.00000E+00 0.00000E+00 0.00000E+00 0.00000E+00 0.00000E+00
 -1         4 0.00000E+00 0.00000E+00 0.00000E+00 0.00000E+00 0.00000E+00 0.00000E+00
 -1         5 0.00000E+00 0.00000E+00 0.00000E+00 0.00000E+00 0.00000E+00 0.00000E+00
 -1         6 0.00000E+00 0.00000E+00 0.00000E+00 0.00000E+00 0.00000E+00 0.00000E+00
 -1         7 0.00000E+00 0.00000E+00 0.00000E+00 0.00000E+00 0.00000E+00 0.00000E+00
 -1         8 0.00000E+00 0.00000E+00 0.00000E+00 0.00000E+00 0.00000E+00 0.00000E+00
 -1         9-2.00107E-06-6.70013E-14 7.07706E-06 2.00107E+01-2.24595E-11 1.99916E-03
 -1        10-2.00037E-06 3.05412E-06 4.02180E-06 2.00037E+01 1.28703E-03 1.81774E-03
 -1        11 0.00000E+00 0.00000E+00 0.00000E+00 0.00000E+00 0.00000E+00 0.00000E+00
 -1        12 0.00000E+00 0.00000E+00 0.00000E+00 0.00000E+00 0.00000E+00 0.00000E+00
 -1        13-2.00037E-06-3.05412E-06 4.02180E-06 2.00037E+01-1.28703E-03 1.81774E-03
 -1        14-1.99864E-06-6.69637E-14 9.65153E-07 1.99864E+01-7.97956E-11 1.31563E-03
 -1        15 0.00000E+00 0.00000E+00 0.00000E+00 0.00000E+00 0.00000E+00 0.00000E+00
 -1        16 0.00000E+00 0.00000E+00 0.00000E+00 0.00000E+00 0.00000E+00 0.00000E+00
 -3
    1PSTEP                         7           3           1          
  100CL  103 3.50000E-01          16                     0    3           1
 -4  DISP        4    1
 -5  D1          1    2    1    0
 -5  D2          1    2    2    0
 -5  D3          1    2    3    0
 -5  ALL         1    2    0    0    1ALL
 -1         1 0.00000E+00 0.00000E+00 0.00000E+00
 -1         2 0.00000E+00 0.00000E+00 0.00000E+00
 -1         3 1.29975E-06-1.29690E-06-6.06563E-06
 -1         4 1.30054E-06 1.30336E-06-6.06898E-06
 -1         5 0.00000E+00 0.00000E+00 0.00000E+00
 -1         6 0.00000E+00 0.00000E+00 0.00000E+00
 -1         7-1.29975E-06-1.29690E-06-6.06563E-06
 -1         8-1.30054E-06 1.30336E-06-6.06898E-06
 -1         9-3.99611E-14 1.41146E-05-1.19188E-05
 -1        10 7.07088E-06 7.04116E-06-1.19157E-05
 -1        11 7.07510E-06 7.05637E-06-4.52611E-05
 -1        12 0.00000E+00 1.41352E-05-4.52715E-05
 -1        13-7.07088E-06 7.04116E-06-1.19157E-05
 -1        14-3.99188E-14-3.52742E-08-1.19089E-05
 -1        15 0.00000E+00 0.00000E+00-4.52423E-05
 -1        16-7.07510E-06 7.05637E-06-4.52611E-05
 -3
    1PSTEP                         8           3           1          
  100CL  103 3.50000E-01          16                     0    3           1
 -4  STRESS      6    1
 -5  SXX         1    4    1    1
 -5  SYY         1    4    2    2
 -5  SZZ         1    4    3    3
 -5  SXY         1    4    1    2
 -5  SYZ         1    4    2    3
 -5  SZX         1    4    3    1
 -1         1-7.35271E-01-7.35271E-01-1.71558E+00 2.73821E-07 1.05269E-01 1.05041E-01
 -1         2-7.34865E-01-7.34865E-01-1.71463E+00-2.72286E-07-1.04746E-01 1.04977E-01
 -1         3 3.15027E-01 3.15149E-01-1.08466E+00 6.38139E-05-1.05018E-01 1.04978E-01
 -1         4 3.15069E-01 3.14935E-01-1.08542E+00 6.43677E-05 1.04999E-01 1.05042E-01
 -1         5-7.35271E-01-7.35271E-01-1.71558E+00-2.73821E-07 1.05269E-01-1.05041E-01
 -1         6-7.34865E-01-7.34865E-01-1.71463E+00 2.72286E-07-1.04746E-01-1.04977E-01
 -1         7 3.15027E-01 3.15149E-01-1.08466E+00-6.38216E-05-1.05018E-01-1.04978E-01
 -1         8 3.15069E-01 3.14935E-01-1.08542E+00-6.43600E-05 1.04999E-01-1.05042E-01
 -1         9-7.82502E-03-4.87350E-03-3.50105E+01 5.60184E-11 6.53766E-03-1.69618E-10
 -1        10-2.14250E-03 2.50647E-03-3.49989E+01 8.48725E-04 3.32678E-03 6.61893E-04
 -1        11 1.74634E-06-8.55658E-03-3.50016E+01-6.41553E-03-2.17900E-03-6.87527E-04
 -1        12 5.21561E-03 9.48834E-03-3.50023E+01-8.77608E-11 2.38129E-03-8.32772E-11
 -1        13-2.14250E-03 2.50647E-03-3.49989E+01-8.48725E-04 3.32678E-03-6.61893E-04
 -1        14 6.40319E-03 1.27496E-02-3.49807E+01-9.50927E-11 1.03824E-02-1.86689E-10
 -1        15-2.34895E-03-2.37383E-02-3.49943E+01 1.00409E-10 3.52721E-03-1.00352E-10
 -1        16 1.74550E-06-8.55658E-03-3.50016E+01 6.41553E-03-2.17900E-03 6.87527E-04
 -3
    1PSTEP                         9           3           1          
  100CL  103 3.50000E-01          16                     0    3           1
 -4  CONTACT     6    1
 -5  COPEN       1    4    1    1
 -5  CSLIP1      1    4    2    2
 -5  CSLIP2      1    4    3    3
 -5  CPRESS      1    4    1    2
 -5  CSHEAR1     1    4    2    3
 -5  CSHEAR2     1    4    3    1
 -1         1 0.00000E+00 0.00000E+00 0.00000E+00 0.00000E+00 0.00000E+00 0.00000E+00
 -1         2 0.00000E+00 0.00000E+00 0.00000E+00 0.00000E+00 0.00000E+00 0.00000E+00
 -1         3 0.00000E+00 0.00000E+00 0.00000E+00 0.00000E+00 0.00000E+00 0.00000E+00
 -1         4 0.00000E+00 0.00000E+00 0.00000E+00 0.00000E+00 0.00000E+00 0.00000E+00
 -1         5 0.00000E+00 0.00000E+00 0.00000E+00 0.00000E+00 0.00000E+00 0.00000E+00
 -1         6 0.00000E+00 0.00000E+00 0.00000E+00 0.00000E+00 0.00000E+00 0.00000E+00
 -1         7 0.00000E+00 0.00000E+00 0.00000E+00 0.00000E+00 0.00000E+00 0.00000E+00
 -1         8 0.00000E+00 0.00000E+00 0.00000E+00 0.00000E+00 0.00000E+00 0.00000E+00
 -1         9-3.50195E-06-1.45222E-13 1.23852E-05 3.50195E+01-6.28464E-11 3.49859E-03
 -1        10-3.50067E-06 5.34526E-06 7.03792E-06 3.50067E+01 2.25252E-03 3.18114E-03
 -1        11 0.00000E+00 0.00000E+00 0.00000E+00 0.00000E+00 0.00000E+00 0.00000E+00
 -1        12 0.00000E+00 0.00000E+00 0.00000E+00 0.00000E+00 0.00000E+00 0.00000E+00
 -1        13-3.50067E-06-5.34526E-06 7.03792E-06 3.50067E+01-2.25252E-03 3.18114E-03
 -1        14-3.49769E-06-1.45187E-13 1.68820E-06 3.49769E+01-1.74622E-10 2.30174E-03
 -1        15 0.00000E+00 0.00000E+00 0.00000E+00 0.00000E+00 0.00000E+00 0.00000E+00
 -1        16 0.00000E+00 0.00000E+00 0.00000E+00 0.00000E+00 0.00000E+00 0.00000E+00
 -3
    1PSTEP                        10           4           1          
  100CL  104 5.75000E-01          16                     0    4           1
 -4  DISP        4    1
 -5  D1          1    2    1    0
 -5  D2          1    2    2    0
 -5  D3          1    2    3    0
 -5  ALL         1    2    0    0    1ALL
 -1         1 0.00000E+00 0.00000E+00 0.00000E+00
 -1         2 0.00000E+00 0.00000E+00 0.00000E+00
 -1         3 2.13542E-06-2.13064E-06-9.96554E-06
 -1         4 2.13678E-06 2.14151E-06-9.97130E-06
 -1         5 0.00000E+00 0.00000E+00 0.00000E+00
 -1         6 0.00000E+00 0.00000E+00 0.00000E+00
 -1         7-2.13542E-06-2.13064E-06-9.96554E-06
 -1         8-2.13678E-06 2.14151E-06-9.97130E-06
 -1         9-4.58606E-14 2.31919E-05-1.95488E-05
 -1        10 1.16183E-05 1.15694E-05-1.95436E-05
 -1        11 1.16252E-05 1.15944E-05-7.43377E-05
 -1        12 0.00000E+00 2.32257E-05-7.43548E-05
 -1        13-1.16183E-05 1.15694E-05-1.95436E-05
 -1        14-4.57361E-14-5.79909E-08-1.95325E-05
 -1        15 0.00000E+00 0.00000E+00-7.43069E-05
 -1        16-1.16252E-05 1.15944E-05-7.43377E-05
 -3
    1PSTEP                        11           4           1          
  100CL  104 5.75000E-01          16                     0    4           1
 -4  STRESS      6    1
 -5  SXX         1    4    1    1
 -5  SYY         1    4    2    2
 -5  SZZ         1    4    3    3
 -5  SXY         1    4    1    2
 -5  SYZ         1    4    2    3
 -5  SZX         1    4    3    1
 -1         1-1.20805E+00-1.20805E+00-2.81867E+00 7.38939E-07 1.72961E-01 1.72579E-01
 -1         2-1.20735E+00-1.20735E+00-2.81704E+00-7.35189E-07-1.72083E-01 1.72469E-01
 -1         3 5.17581E-01 5.17791E-01-1.78203E+00 1.09336E-04-1.72550E-01 1.72471E-01
 -1         4 5.17653E-01 5.17424E-01-1.78332E+00 1.10819E-04 1.72498E-01 1.72581E-01
 -1         5-1.20805E+00-1.20805E+00-2.81867E+00-7.38938E-07 1.72961E-01-1.72579E-01
 -1         6-1.20735E+00-1.20735E+00-2.81704E+00 7.35189E-07-1.72083E-01-1.72469E-01
 -1         7 5.17581E-01 5.17791E-01-1.78203E+00-1.09345E-04-1.72550E-01-1.72471E-01
 -1         8 5.17653E-01 5.17424E-01-1.78332E+00-1.10810E-04 1.72498E-01-1.72581E-01
 -1         9-1.28430E-02-8.00816E-03-5.75172E+01 5.27161E-11 1.07185E-02-1.57514E-10
 -1        10-3.52748E-03 4.09816E-03-5.74983E+01 1.39542E-03 5.46750E-03 1.11426E-03
 -1        11-2.19673E-05-1.40759E-02-5.75027E+01-1.05498E-02-3.58625E-03-1.13259E-03
 -1        12 8.58029E-03 1.56259E-02-5.75037E+01-8.14620E-11 3.91159E-03-7.23512E-11
 -1        13-3.52748E-03 4.09816E-03-5.74983E+01-1.39542E-03 5.46750E-03-1.11426E-03
 -1        14 1.05560E-02 2.09725E-02-5.74682E+01-1.00432E-10 1.70915E-02-2.07753E-10
 -1        15-3.85626E-03-3.90097E-02-5.74905E+01 1.05229E-10 5.79086E-03-1.22590E-10
 -1        16-2.19681E-05-1.40759E-02-5.75027E+01 1.05498E-02-3.58625E-03 1.13259E-03
 -3
    1PSTEP                        12           4           1          
  100CL  104 5.75000E-01          16                     0    4           1
 -4  CONTACT     6    1
 -5  COPEN       1    4    1    1
 -5  CSLIP1      1    4    2    2
 -5  CSLIP2      1    4    3    3
 -5  CPRESS      1    4    1    2
 -5  CSHEAR1     1    4    2    3
 -5  CSHEAR2     1    4    3    1
 -1         1 0.00000E+00 0.00000E+00 0.00000E+00 0.00000E+00 0.00000E+00 0.00000E+00
 -1         2 0.00000E+00 0.00000E+00 0.00000E+00 0.00000E+00 0.00000E+00 0.00000E+00
 -1         3 0.00000E+00 0.00000E+00 0.00000E+00 0.00000E+00 0.00000E+00 0.00000E+00
 -1         4 0.00000E+00 0.00000E+00 0.00000E+00 0.00000E+00 0.00000E+00 0.00000E+00
 -1         5 0.00000E+00 0.00000E+00 0.00000E+00 0.00000E+00 0.00000E+00 0.00000E+00
 -1         6 0.00000E+00 0.00000E+00 0.00000E+00 0.00000E+00 0.00000E+00 0.00000E+00
 -1         7 0.00000E+00 0.00000E+00 0.00000E+00 0.00000E+00 0.00000E+00 0.00000E+00
 -1         8 0.00000E+00 0.00000E+00 0.00000E+00 0.00000E+00 0.00000E+00 0.00000E+00
 -1         9-5.75332E-06-1.66432E-13 2.03502E-05 5.75332E+01-5.00937E-11 5.74781E-03
 -1        10-5.75124E-06 8.78290E-06 1.15639E-05 5.75124E+01 3.70057E-03 5.22629E-03
 -1        11 0.00000E+00 0.00000E+00 0.00000E+00 0.00000E+00 0.00000E+00 0.00000E+00
 -1        12 0.00000E+00 0.00000E+00 0.00000E+00 0.00000E+00 0.00000E+00 0.00000E+00
 -1        13-5.75124E-06-8.78290E-06 1.15639E-05 5.75124E+01-3.70057E-03 5.22629E-03
 -1        14-5.74633E-06-1.66315E-13 2.77370E-06 5.74633E+01-2.04279E-10 3.78160E-03
 -1        15 0.00000E+00 0.00000E+00 0.00000E+00 0.00000E+00 0.00000E+00 0.00000E+00
 -1        16 0.00000E+00 0.00000E+00 0.00000E+00 0.00000E+00 0.00000E+00 0.00000E+00
 -3
    1PSTEP                        13           5           1          
  100CL  105 9.12500E-01          16                     0    5           1
 -4  DISP        4    1
 -5  D1          1    2    1    0
 -5  D2          1    2    2    0
 -5  D3          1    2    3    0
 -5  ALL         1    2    0    0    1ALL
 -1         1 0.00000E+00 0.00000E+00 0.00000E+00
 -1         2 0.00000E+00 0.00000E+00 0.00000E+00
 -1         3 3.38909E-06-3.38127E-06-1.58162E-05
 -1         4 3.39140E-06 3.39913E-06-1.58260E-05
 -1         5 0.00000E+00 0.00000E+00 0.00000E+00
 -1         6 0.00000E+00 0.00000E+00 0.00000E+00
 -1         7-3.38909E-06-3.38127E-06-1.58162E-05
 -1         8-3.39140E-06 3.39913E-06-1.58260E-05
 -1         9-1.04023E-13 3.68173E-05-2.69260E-05
 -1        10 1.84421E-05 1.83687E-05-2.69199E-05
 -1        11 1.84528E-05 1.84042E-05-1.13906E-04
 -1        12 0.00000E+00 3.68671E-05-1.13930E-04
 -1        13-1.84421E-05 1.83687E-05-2.69199E-05
 -1        14-1.03912E-13-8.75727E-08-2.69063E-05
 -1        15 0.00000E+00 0.00000E+00-1.13860E-04
 -1        16-1.84528E-05 1.84042E-05-1.13906E-04
 -3
    1PSTEP                        14           5           1          
  100CL  105 9.12500E-01          16                     0    5           1
 -4  STRESS      6    1
 -5  SXX         1    4    1    1
 -5  SYY         1    4    2    2
 -5  SZZ         1    4    3    3
 -5  SXY         1    4    1    2
 -5  SYZ         1    4    2    3
 -5  SZX         1    4    3    1
 -1         1-1.91736E+00-1.91736E+00-4.47362E+00 1.86111E-06 2.74528E-01 2.73904E-01
 -1         2-1.91618E+00-1.91618E+00-4.47087E+00-1.85212E-06-2.73086E-01 2.73718E-01
 -1         3 8.21465E-01 8.21822E-01-2.82819E+00 1.84224E-04-2.73878E-01 2.73723E-01
 -1         4 8.21588E-01 8.21201E-01-2.83038E+00 1.87958E-04 2.73747E-01 2.73909E-01
 -1         5-1.91736E+00-1.91736E+00-4.47362E+00-1.86111E-06 2.74528E-01-2.73904E-01
 -1         6-1.91618E+00-1.91618E+00-4.47087E+00 1.85212E-06-2.73086E-01-2.73718E-01
 -1         7 8.21465E-01 8.21822E-01-2.82819E+00-1.84244E-04-2.73878E-01-2.73723E-01
 -1         8 8.21588E-01 8.21201E-01-2.83038E+00-1.87937E-04 2.73747E-01-2.73909E-01
 -1         9-2.00219E-02-1.26334E-02-9.12768E+01 1.40212E-10 1.65892E-02-4.47711E-10
 -1        10-5.69464E-03 6.12935E-03-9.12478E+01 2.21776E-03 8.68120E-03 2.20033E-03
 -1        11-4.23108E-04-2.24624E-02-9.12548E+01-1.67660E-02-5.70562E-03-1.82087E-03
 -1        12 1.37253E-02 2.52180E-02-9.12553E+01-2.16410E-10 6.22363E-03-2.35273E-10
 -1        13-5.69464E-03 6.12935E-03-9.12478E+01-2.21776E-03 8.68120E-03-2.20033E-03
 -1        14 1.71677E-02 3.34272E-02-9.11990E+01-2.40610E-10 2.75747E-02-4.92483E-10
 -1        15-6.03644E-03-6.16077E-02-9.12344E+01 2.49204E-10 9.16665E-03-2.80040E-10
 -1        16-4.23110E-04-2.24624E-02-9.12548E+01 1.67660E-02-5.70562E-03 1.82087E-03
 -3
    1PSTEP                        15           5           1          
  100CL  105 9.12500E-01          16                     0    5           1
 -4  CONTACT     6    1
 -5  COPEN       1    4    1    1
 -5  CSLIP1      1    4    2    2
 -5  CSLIP2      1    4    3    3
 -5  CPRESS      1    4    1    2
 -5  CSHEAR1     1    4    2    3
 -5  CSHEAR2     1    4    3    1
 -1         1 0.00000E+00 0.00000E+00 0.00000E+00 0.00000E+00 0.00000E+00 0.00000E+00
 -1         2 0.00000E+00 0.00000E+00 0.00000E+00 0.00000E+00 0.00000E+00 0.00000E+00
 -1         3 0.00000E+00 0.00000E+00 0.00000E+00 0.00000E+00 0.00000E+00 0.00000E+00
 -1         4 0.00000E+00 0.00000E+00 0.00000E+00 0.00000E+00 0.00000E+00 0.00000E+00
 -1         5 0.00000E+00 0.00000E+00 0.00000E+00 0.00000E+00 0.00000E+00 0.00000E+00
 -1         6 0.00000E+00 0.00000E+00 0.00000E+00 0.00000E+00 0.00000E+00 0.00000E+00
 -1         7 0.00000E+00 0.00000E+00 0.00000E+00 0.00000E+00 0.00000E+00 0.00000E+00
 -1         8 0.00000E+00 0.00000E+00 0.00000E+00 0.00000E+00 0.00000E+00 0.00000E+00
 -1         9-9.13046E-06-4.10016E-13 3.23064E-05 9.13046E+01-1.90930E-10 9.12178E-03
 -1        10-9.12744E-06 1.39415E-05 1.83597E-05 9.12744E+01 5.87155E-03 8.29407E-03
 -1        11 0.00000E+00 0.00000E+00 0.00000E+00 0.00000E+00 0.00000E+00 0.00000E+00
 -1        12 0.00000E+00 0.00000E+00 0.00000E+00 0.00000E+00 0.00000E+00 0.00000E+00
 -1        13-9.12744E-06-1.39415E-05 1.83597E-05 9.12744E+01-5.87155E-03 8.29407E-03
 -1        14-9.11935E-06-4.09922E-13 4.40682E-06 9.11935E+01-4.79121E-10 6.00497E-03
 -1        15 0.00000E+00 0.00000E+00 0.00000E+00 0.00000E+00 0.00000E+00 0.00000E+00
 -1        16 0.00000E+00 0.00000E+00 0.00000E+00 0.00000E+00 0.00000E+00 0.00000E+00
 -3
    1PSTEP                        16           6           1          
  100CL  106 1.000000000          16                     0    6           1
 -4  DISP        4    1
 -5  D1          1    2    1    0
 -5  D2          1    2    2    0
 -5  D3          1    2    3    0
 -5  ALL         1    2    0    0    1ALL
 -1         1 0.00000E+00 0.00000E+00 0.00000E+00
 -1         2 0.00000E+00 0.00000E+00 0.00000E+00
 -1         3 3.71406E-06-3.70512E-06-1.73329E-05
 -1         4 3.71682E-06 3.72566E-06-1.73445E-05
 -1         5 0.00000E+00 0.00000E+00 0.00000E+00
 -1         6 0.00000E+00 0.00000E+00 0.00000E+00
 -1         7-3.71406E-06-3.70512E-06-1.73329E-05
 -1         8-3.71681E-06 3.72566E-06-1.73445E-05
 -1         9-1.23140E-13 4.03523E-05-2.73464E-05
 -1        10 2.02118E-05 2.01335E-05-2.73407E-05
 -1        11 2.02234E-05 2.01703E-05-1.22676E-04
 -1        12 0.00000E+00 4.04049E-05-1.22701E-04
 -1        13-2.02118E-05 2.01335E-05-2.73407E-05
 -1        14-1.23064E-13-9.37162E-08-2.73278E-05
 -1        15 0.00000E+00 0.00000E+00-1.22627E-04
 -1        16-2.02234E-05 2.01703E-05-1.22676E-04
 -3
    1PSTEP                        17           6           1          
  100CL  106 1.000000000          16                     0    6           1
 -4  STRESS      6    1
 -5  SXX         1    4    1    1
 -5  SYY         1    4    2    2
 -5  SZZ         1    4    3    3
 -5  SXY         1    4    1    2
 -5  SYZ         1    4    2    3
 -5  SZX         1    4    3    1
 -1         1-2.10134E+00-2.10134E+00-4.90286E+00 2.23544E-06 3.00898E-01 3.00184E-01
 -1         2-2.09993E+00-2.09993E+00-4.89957E+00-2.22429E-06-2.99239E-01 2.99962E-01
 -1         3 9.00256E-01 9.00684E-01-3.09935E+00 2.20354E-04-3.00187E-01 2.99968E-01
 -1         4 9.00402E-01 8.99941E-01-3.10197E+00 2.24838E-04 2.99964E-01 3.00191E-01
 -1         5-2.10134E+00-2.10134E+00-4.90286E+00-2.23544E-06 3.00898E-01-3.00184E-01
 -1         6-2.09993E+00-2.09993E+00-4.89957E+00 2.22429E-06-2.99239E-01-2.99962E-01
 -1         7 9.00256E-01 9.00684E-01-3.09934E+00-2.20378E-04-3.00187E-01-2.99968E-01
 -1         8 9.00402E-01 8.99941E-01-3.10197E+00-2.24814E-04 2.99964E-01-3.00191E-01
 -1         9-2.17472E-02-1.37990E-02-1.00029E+02 1.93239E-10 1.79589E-02-6.17394E-10
 -1        10-6.28909E-03 6.52009E-03-9.99979E+01 2.43052E-03 9.51524E-03 2.63362E-03
 -1        11-6.62571E-04-2.46679E-02-1.00006E+02-1.83767E-02-6.25424E-03-2.00595E-03
 -1        12 1.50901E-02 2.78381E-02-1.00006E+02-2.97837E-10 6.82902E-03-3.29270E-10
 -1        13-6.28909E-03 6.52009E-03-9.99979E+01-2.43052E-03 9.51524E-03-2.63362E-03
 -1        14 1.90171E-02 3.66874E-02-9.99438E+01-3.10931E-10 3.04426E-02-6.48065E-10
 -1        15-6.56711E-03-6.73257E-02-9.99827E+01 3.30115E-10 1.00336E-02-3.59929E-10
 -1        16-6.62574E-04-2.46679E-02-1.00006E+02 1.83767E-02-6.25424E-03 2.00595E-03
 -3
    1PSTEP                        18           6           1          
  100CL  106 1.000000000          16                     0    6           1
 -4  CONTACT     6    1
 -5  COPEN       1    4    1    1
 -5  CSLIP1      1    4    2    2
 -5  CSLIP2      1    4    3    3
 -5  CPRESS      1    4    1    2
 -5  CSHEAR1     1    4    2    3
 -5  CSHEAR2     1    4    3    1
 -1         1 0.00000E+00 0.00000E+00 0.00000E+00 0.00000E+00 0.00000E+00 0.00000E+00
 -1         2 0.00000E+00 0.00000E+00 0.00000E+00 0.00000E+00 0.00000E+00 0.00000E+00
 -1         3 0.00000E+00 0.00000E+00 0.00000E+00 0.00000E+00 0.00000E+00 0.00000E+00
 -1         4 0.00000E+00 0.00000E+00 0.00000E+00 0.00000E+00 0.00000E+00 0.00000E+00
 -1         5 0.00000E+00 0.00000E+00 0.00000E+00 0.00000E+00 0.00000E+00 0.00000E+00
 -1         6 0.00000E+00 0.00000E+00 0.00000E+00 0.00000E+00 0.00000E+00 0.00000E+00
 -1         7 0.00000E+00 0.00000E+00 0.00000E+00 0.00000E+00 0.00000E+00 0.00000E+00
 -1         8 0.00000E+00 0.00000E+00 0.00000E+00 0.00000E+00 0.00000E+00 0.00000E+00
 -1         9-1.00052E-05-4.75620E-13 3.54080E-05 1.00052E+02-2.30195E-10 9.99574E-03
 -1        10-1.00021E-05 1.52793E-05 2.01231E-05 1.00021E+02 6.43351E-03 9.08869E-03
 -1        11 0.00000E+00 0.00000E+00 0.00000E+00 0.00000E+00 0.00000E+00 0.00000E+00
 -1        12 0.00000E+00 0.00000E+00 0.00000E+00 0.00000E+00 0.00000E+00 0.00000E+00
 -1        13-1.00021E-05-1.52793E-05 2.01231E-05 1.00021E+02-6.43351E-03 9.08869E-03
 -1        14-9.99303E-06-4.75564E-13 4.83140E-06 9.99303E+01-5.54831E-10 6.58199E-03
 -1        15 0.00000E+00 0.00000E+00 0.00000E+00 0.00000E+00 0.00000E+00 0.00000E+00
 -1        16 0.00000E+00 0.00000E+00 0.00000E+00 0.00000E+00 0.00000E+00 0.00000E+00
 -3
    1PSTEP                        19         100           2          
  100CL  107 2.000000000          16                     0    7           1
 -4  DISP        4    1
 -5  D1          1    2    1    0
 -5  D2          1    2    2    0
 -5  D3          1    2    3    0
 -5  ALL         1    2    0    0    1ALL
 -1         1 0.00000E+00 0.00000E+00 0.00000E+00
 -1         2 0.00000E+00 0.00000E+00 0.00000E+00
 -1         3 2.03253E-06 3.39419E-06-1.02335E-05
 -1         4 5.39811E-06 1.08254E-05-2.44441E-05
 -1         5 0.00000E+00 0.00000E+00 0.00000E+00
 -1         6 0.00000E+00 0.00000E+00 0.00000E+00
 -1         7-2.03253E-06 3.39419E-06-1.02335E-05
 -1         8-5.39811E-06 1.08254E-05-2.44441E-05
 -1         9-1.21208E-13 1.00038E-01-3.07765E-05
 -1        10 2.02135E-05 1.00017E-01-2.87616E-05
 -1        11 2.02233E-05 1.00020E-01-1.24097E-04
 -1        12 0.00000E+00 1.00040E-01-1.26135E-04
 -1        13-2.02135E-05 1.00017E-01-2.87616E-05
 -1        14-1.21226E-13 9.99971E-02-2.67396E-05
 -1        15 0.00000E+00 1.00000E-01-1.22036E-04
 -1        16-2.02233E-05 1.00020E-01-1.24097E-04
 -3
    1PSTEP                        20         100           2          
  100CL  107 2.000000000          16                     0    7           1
 -4  STRESS      6    1
 -5  SXX         1    4    1    1
 -5  SYY         1    4    2    2
 -5  SZZ         1    4    3    3
 -5  SXY         1    4    1    2
 -5  SYZ         1    4    2    3
 -5  SZX         1    4    3    1
 -1         1-2.96148E+00-2.96147E+00-6.90972E+00 7.32907E-06 8.74287E-01 4.35964E-01
 -1         2-1.23981E+00-1.23981E+00-2.89276E+00-2.33543E-07 2.74145E-01 1.64164E-01
 -1         3 8.09694E-01 1.35347E+00-1.49991E+00 2.71838E-01-8.73622E-01 1.64158E-01
 -1         4 9.90938E-01 4.47345E-01-4.70135E+00 2.71844E-01-2.73427E-01 4.35972E-01
 -1         5-2.96148E+00-2.96147E+00-6.90972E+00-7.32907E-06 8.74287E-01-4.35964E-01
 -1         6-1.23981E+00-1.23981E+00-2.89276E+00 2.33543E-07 2.74145E-01-1.64164E-01
 -1         7 8.09694E-01 1.35347E+00-1.49991E+00-2.71838E-01-8.73622E-01-1.64158E-01
 -1         8 9.90938E-01 4.47345E-01-4.70135E+00-2.71844E-01-2.73427E-01-4.35972E-01
 -1         9-2.06141E-02-1.48808E-02-1.00033E+02 3.62724E-12 1.86706E-02-6.34484E-11
 -1        10-2.73165E-03 8.48812E-03-9.99964E+01 2.74340E-03 9.18056E-03 1.90998E-03
 -1        11-2.17233E-03-2.76001E-02-1.00007E+02-2.05147E-02-8.40989E-03-2.70852E-03
 -1        12 1.48323E-02 3.04343E-02-1.00008E+02 7.27845E-12 5.69827E-03-6.40250E-11
 -1        13-2.73165E-03 8.48812E-03-9.99964E+01-2.74340E-03 9.18056E-03-1.90998E-03
 -1        14 2.49548E-02 4.16620E-02-9.99374E+01 6.67310E-13 3.25214E-02-5.65288E-11
 -1        15-9.37293E-03-7.58295E-02-9.99829E+01 1.73392E-11 1.03128E-02-5.71013E-11
 -1        16-2.17233E-03-2.76001E-02-1.00007E+02 2.05147E-02-8.40989E-03 2.70852E-03
 -3
    1PSTEP                        21         100           2          
  100CL  107 2.000000000          16                     0    7           1
 -4  CONTACT     6    1
 -5  COPEN       1    4    1    1
 -5  CSLIP1      1    4    2    2
 -5  CSLIP2      1    4    3    3
 -5  CPRESS      1    4    1    2
 -5  CSHEAR1     1    4    2    3
 -5  CSHEAR2     1    4    3    1
 -1         1 0.00000E+00 0.00000E+00 0.00000E+00 0.00000E+00 0.00000E+00 0.00000E+00
 -1         2 0.00000E+00 0.00000E+00 0.00000E+00 0.00000E+00 0.00000E+00 0.00000E+00
 -1         3 0.00000E+00 0.00000E+00 0.00000E+00 0.00000E+00 0.00000E+00 0.00000E+00
 -1         4 0.00000E+00 0.00000E+00 0.00000E+00 0.00000E+00 0.00000E+00 0.00000E+00
 -1         5 0.00000E+00 0.00000E+00 0.00000E+00 0.00000E+00 0.00000E+00 0.00000E+00
 -1         6 0.00000E+00 0.00000E+00 0.00000E+00 0.00000E+00 0.00000E+00 0.00000E+00
 -1         7 0.00000E+00 0.00000E+00 0.00000E+00 0.00000E+00 0.00000E+00 0.00000E+00
 -1         8 0.00000E+00 0.00000E+00 0.00000E+00 0.00000E+00 0.00000E+00 0.00000E+00
 -1         9-1.00057E-05-4.61029E-13 1.00025E-01 1.00057E+02-1.33078E-13 1.00057E-02
 -1        10-1.00018E-05 1.52164E-05 1.00009E-01 1.00018E+02-1.62001E-08 1.00018E-02
 -1        11 0.00000E+00 0.00000E+00 0.00000E+00 0.00000E+00 0.00000E+00 0.00000E+00
 -1        12 0.00000E+00 0.00000E+00 0.00000E+00 0.00000E+00 0.00000E+00 0.00000E+00
 -1        13-1.00018E-05-1.52164E-05 1.00009E-01 1.00018E+02 1.62000E-08 1.00018E-02
 -1        14-9.99208E-06-4.42934E-13 9.99941E-02 9.99208E+01-3.22740E-14 9.99208E-03
 -1        15 0.00000E+00 0.00000E+00 0.00000E+00 0.00000E+00 0.00000E+00 0.00000E+00
 -1        16 0.00000E+00 0.00000E+00 0.00000E+00 0.00000E+00 0.00000E+00 0.00000E+00
 -3
    1PSTEP                        22           1           3          
  100CL  108 2.010000000          16                     0    8           1
 -4  DISP        4    1
 -5  D1          1    2    1    0
 -5  D2          1    2    2    0
 -5  D3          1    2    3    0
 -5  ALL         1    2    0    0    1ALL
 -1         1 0.00000E+00 0.00000E+00 0.00000E+00
 -1         2 0.00000E+00 0.00000E+00 0.00000E+00
 -1         3 2.01556E-06 3.46579E-06-1.01619E-05
 -1         4 5.41509E-06 1.08970E-05-2.45157E-05
 -1         5 0.00000E+00 0.00000E+00 0.00000E+00
 -1         6 0.00000E+00 0.00000E+00 0.00000E+00
 -1         7-2.01556E-06 3.46579E-06-1.01618E-05
 -1         8-5.41508E-06 1.08970E-05-2.45157E-05
 -1         9-1.22232E-13 1.00037E-01-3.08112E-05
 -1        10 2.02135E-05 1.00017E-01-2.87761E-05
 -1        11 2.02232E-05 1.00020E-01-1.24112E-04
 -1        12 0.00000E+00 1.00040E-01-1.26169E-04
 -1        13-2.02135E-05 1.00017E-01-2.87761E-05
 -1        14-1.22249E-13 9.99970E-02-2.67339E-05
 -1        15 0.00000E+00 1.00000E-01-1.22031E-04
 -1        16-2.02232E-05 1.00020E-01-1.24112E-04
 -3
    1PSTEP                        23           1           3          
  100CL  108 2.010000000          16                     0    8           1
 -4  STRESS      6    1
 -5  SXX         1    4    1    1
 -5  SYY         1    4    2    2
 -5  SZZ         1    4    3    3
 -5  SXY         1    4    1    2
 -5  SYZ         1    4    2    3
 -5  SZX         1    4    3    1
 -1         1-2.97017E+00-2.97015E+00-6.92997E+00 7.39621E-06 8.80069E-01 4.37335E-01
 -1         2-1.23113E+00-1.23113E+00-2.87250E+00-2.29246E-07 2.79928E-01 1.62793E-01
 -1         3 8.08780E-01 1.35803E+00-1.48376E+00 2.74579E-01-8.79414E-01 1.62788E-01
 -1         4 9.91852E-01 4.42776E-01-4.71750E+00 2.74586E-01-2.79219E-01 4.37342E-01
 -1         5-2.97016E+00-2.97015E+00-6.92997E+00-7.39621E-06 8.80069E-01-4.37335E-01
 -1         6-1.23113E+00-1.23113E+00-2.87250E+00 2.29246E-07 2.79928E-01-1.62793E-01
 -1         7 8.08780E-01 1.35803E+00-1.48376E+00-2.74579E-01-8.79414E-01-1.62788E-01
 -1         8 9.91852E-01 4.42776E-01-4.71750E+00-2.74585E-01-2.79219E-01-4.37342E-01
 -1         9-2.03937E-02-1.47223E-02-1.00032E+02-7.87367E-13 1.84422E-02-7.34691E-11
 -1        10-2.70169E-03 8.39774E-03-9.99964E+01 2.71417E-03 9.05327E-03 1.88942E-03
 -1        11-2.14944E-03-2.73060E-02-1.00007E+02-2.02962E-02-8.34975E-03-2.67973E-03
 -1        12 1.46739E-02 3.01100E-02-1.00008E+02-1.00172E-11 5.60801E-03-7.00088E-11
 -1        13-2.70169E-03 8.39774E-03-9.99964E+01-2.71417E-03 9.05327E-03-1.88942E-03
 -1        14 2.46897E-02 4.12181E-02-9.99380E+01-1.61197E-11 3.21454E-02-6.66612E-11
 -1        15-9.27347E-03-7.50217E-02-9.99830E+01 2.03940E-11 1.01736E-02-6.32011E-11
 -1        16-2.14944E-03-2.73060E-02-1.00007E+02 2.02962E-02-8.34975E-03 2.67973E-03
 -3
    1PSTEP                        24           1           3          
  100CL  108 2.010000000          16                     0    8           1
 -4  CONTACT     6    1
 -5  COPEN       1    4    1    1
 -5  CSLIP1      1    4    2    2
 -5  CSLIP2      1    4    3    3
 -5  CPRESS      1    4    1    2
 -5  CSHEAR1     1    4    2    3
 -5  CSHEAR2     1    4    3    1
 -1         1 0.00000E+00 0.00000E+00 0.00000E+00 0.00000E+00 0.00000E+00 0.00000E+00
 -1         2 0.00000E+00 0.00000E+00 0.00000E+00 0.00000E+00 0.00000E+00 0.00000E+00
 -1         3 0.00000E+00 0.00000E+00 0.00000E+00 0.00000E+00 0.00000E+00 0.00000E+00
 -1         4 0.00000E+00 0.00000E+00 0.00000E+00 0.00000E+00 0.00000E+00 0.00000E+00
 -1         5 0.00000E+00 0.00000E+00 0.00000E+00 0.00000E+00 0.00000E+00 0.00000E+00
 -1         6 0.00000E+00 0.00000E+00 0.00000E+00 0.00000E+00 0.00000E+00 0.00000E+00
 -1         7 0.00000E+00 0.00000E+00 0.00000E+00 0.00000E+00 0.00000E+00 0.00000E+00
 -1         8 0.00000E+00 0.00000E+00 0.00000E+00 0.00000E+00 0.00000E+00 0.00000E+00
 -1         9-1.00056E-05-4.63756E-13 1.00025E-01 1.00056E+02-2.86038E-12 9.89895E-03
 -1        10-1.00018E-05 1.52150E-05 1.00009E-01 1.00018E+02-1.62080E-06 9.89508E-03
 -1        11 0.00000E+00 0.00000E+00 0.00000E+00 0.00000E+00 0.00000E+00 0.00000E+00
 -1        12 0.00000E+00 0.00000E+00 0.00000E+00 0.00000E+00 0.00000E+00 0.00000E+00
 -1        13-1.00018E-05-1.52150E-05 1.00009E-01 1.00018E+02 1.62075E-06 9.89508E-03
 -1        14-9.99217E-06-4.48497E-13 9.99940E-02 9.99217E+01-5.59590E-12 9.88547E-03
 -1        15 0.00000E+00 0.00000E+00 0.00000E+00 0.00000E+00 0.00000E+00 0.00000E+00
 -1        16 0.00000E+00 0.00000E+00 0.00000E+00 0.00000E+00 0.00000E+00 0.00000E+00
 -3
    1PSTEP                        25           2           3          
  100CL  109 2.020000000          16                     0    9           1
 -4  DISP        4    1
 -5  D1          1    2    1    0
 -5  D2          1    2    2    0
 -5  D3          1    2    3    0
 -5  ALL         1    2    0    0    1ALL
 -1         1 0.00000E+00 0.00000E+00 0.00000E+00
 -1         2 0.00000E+00 0.00000E+00 0.00000E+00
 -1         3 2.01557E-06 3.46577E-06-1.01619E-05
 -1         4 5.41508E-06 1.08969E-05-2.45157E-05
 -1         5 0.00000E+00 0.00000E+00 0.00000E+00
 -1         6 0.00000E+00 0.00000E+00 0.00000E+00
 -1         7-2.01557E-06 3.46577E-06-1.01619E-05
 -1         8-5.41508E-06 1.08969E-05-2.45157E-05
 -1         9-1.18287E-13 1.00037E-01-3.08112E-05
 -1        10 2.02135E-05 1.00017E-01-2.87761E-05
 -1        11 2.02232E-05 1.00020E-01-1.24112E-04
 -1        12 0.00000E+00 1.00040E-01-1.26169E-04
 -1        13-2.02135E-05 1.00017E-01-2.87761E-05
 -1        14-1.18285E-13 9.99970E-02-2.67339E-05
 -1        15 0.00000E+00 1.00000E-01-1.22031E-04
 -1        16-2.02232E-05 1.00020E-01-1.24112E-04
 -3
    1PSTEP                        26           2           3          
  100CL  109 2.020000000          16                     0    9           1
 -4  STRESS      6    1
 -5  SXX         1    4    1    1
 -5  SYY         1    4    2    2
 -5  SZZ         1    4    3    3
 -5  SXY         1    4    1    2
 -5  SYZ         1    4    2    3
 -5  SZX         1    4    3    1
 -1         1-2.97016E+00-2.97015E+00-6.92997E+00 7.39619E-06 8.80067E-01 4.37334E-01
 -1         2-1.23113E+00-1.23113E+00-2.87251E+00-2.29249E-07 2.79926E-01 1.62793E-01
 -1         3 8.08780E-01 1.35803E+00-1.48377E+00 2.74579E-01-8.79413E-01 1.62788E-01
 -1         4 9.91852E-01 4.42777E-01-4.71749E+00 2.74585E-01-2.79219E-01 4.37342E-01
 -1         5-2.97016E+00-2.97015E+00-6.92997E+00-7.39619E-06 8.80067E-01-4.37334E-01
 -1         6-1.23113E+00-1.23113E+00-2.87251E+00 2.29249E-07 2.79926E-01-1.62793E-01
 -1         7 8.08780E-01 1.35803E+00-1.48377E+00-2.74579E-01-8.79413E-01-1.62788E-01
 -1         8 9.91852E-01 4.42777E-01-4.71749E+00-2.74585E-01-2.79219E-01-4.37342E-01
 -1         9-2.03646E-02-1.47013E-02-1.00032E+02-2.32285E-11 1.84138E-02-3.65524E-11
 -1        10-2.69783E-03 8.38574E-03-9.99964E+01 2.71029E-03 9.03828E-03 1.88671E-03
 -1        11-2.14638E-03-2.72669E-02-1.00007E+02-2.02671E-02-8.33988E-03-2.67590E-03
 -1        12 1.46529E-02 3.00670E-02-1.00008E+02 1.80852E-11 5.59793E-03-4.80719E-11
 -1        13-2.69783E-03 8.38574E-03-9.99964E+01-2.71029E-03 9.03828E-03-1.88671E-03
 -1        14 2.46544E-02 4.11591E-02-9.99381E+01-2.35653E-12 3.20974E-02-3.70597E-11
 -1        15-9.26022E-03-7.49144E-02-9.99830E+01 1.73685E-12 1.01570E-02-4.85728E-11
 -1        16-2.14638E-03-2.72669E-02-1.00007E+02 2.02671E-02-8.33988E-03 2.67590E-03
 -3
    1PSTEP                        27           2           3          
  100CL  109 2.020000000          16                     0    9           1
 -4  CONTACT     6    1
 -5  COPEN       1    4    1    1
 -5  CSLIP1      1    4    2    2
 -5  CSLIP2      1    4    3    3
 -5  CPRESS      1    4    1    2
 -5  CSHEAR1     1    4    2    3
 -5  CSHEAR2     1    4    3    1
 -1         1 0.00000E+00 0.00000E+00 0.00000E+00 0.00000E+00 0.00000E+00 0.00000E+00
 -1         2 0.00000E+00 0.00000E+00 0.00000E+00 0.00000E+00 0.00000E+00 0.00000E+00
 -1         3 0.00000E+00 0.00000E+00 0.00000E+00 0.00000E+00 0.00000E+00 0.00000E+00
 -1         4 0.00000E+00 0.00000E+00 0.00000E+00 0.00000E+00 0.00000E+00 0.00000E+00
 -1         5 0.00000E+00 0.00000E+00 0.00000E+00 0.00000E+00 0.00000E+00 0.00000E+00
 -1         6 0.00000E+00 0.00000E+00 0.00000E+00 0.00000E+00 0.00000E+00 0.00000E+00
 -1         7 0.00000E+00 0.00000E+00 0.00000E+00 0.00000E+00 0.00000E+00 0.00000E+00
 -1         8 0.00000E+00 0.00000E+00 0.00000E+00 0.00000E+00 0.00000E+00 0.00000E+00
 -1         9-1.00056E-05-4.39744E-13 1.00025E-01 1.00056E+02 2.11519E-11 9.89910E-03
 -1        10-1.00018E-05 1.52150E-05 1.00009E-01 1.00018E+02-1.61664E-06 9.89524E-03
 -1        11 0.00000E+00 0.00000E+00 0.00000E+00 0.00000E+00 0.00000E+00 0.00000E+00
 -1        12 0.00000E+00 0.00000E+00 0.00000E+00 0.00000E+00 0.00000E+00 0.00000E+00
 -1        13-1.00018E-05-1.52150E-05 1.00009E-01 1.00018E+02 1.61662E-06 9.89524E-03
 -1        14-9.99218E-06-4.32218E-13 9.99940E-02 9.99218E+01 1.06838E-11 9.88564E-03
 -1        15 0.00000E+00 0.00000E+00 0.00000E+00 0.00000E+00 0.00000E+00 0.00000E+00
 -1        16 0.00000E+00 0.00000E+00 0.00000E+00 0.00000E+00 0.00000E+00 0.00000E+00
 -3
    1PSTEP                        28           3           3          
  100CL  110 2.035000000          16                     0   10           1
 -4  DISP        4    1
 -5  D1          1    2    1    0
 -5  D2          1    2    2    0
 -5  D3          1    2    3    0
 -5  ALL         1    2    0    0    1ALL
 -1         1 0.00000E+00 0.00000E+00 0.00000E+00
 -1         2 0.00000E+00 0.00000E+00 0.00000E+00
 -1         3 2.01557E-06 3.46577E-06-1.01619E-05
 -1         4 5.41508E-06 1.08969E-05-2.45157E-05
 -1         5 0.00000E+00 0.00000E+00 0.00000E+00
 -1         6 0.00000E+00 0.00000E+00 0.00000E+00
 -1         7-2.01557E-06 3.46577E-06-1.01619E-05
 -1         8-5.41508E-06 1.08969E-05-2.45157E-05
 -1         9-1.18363E-13 1.00037E-01-3.08112E-05
 -1        10 2.02135E-05 1.00017E-01-2.87761E-05
 -1        11 2.02232E-05 1.00020E-01-1.24112E-04
 -1        12 0.00000E+00 1.00040E-01-1.26169E-04
 -1        13-2.02135E-05 1.00017E-01-2.87761E-05
 -1        14-1.18356E-13 9.99970E-02-2.67339E-05
 -1        15 0.00000E+00 1.00000E-01-1.22031E-04
 -1        16-2.02232E-05 1.00020E-01-1.24112E-04
 -3
    1PSTEP                        29           3           3          
  100CL  110 2.035000000          16                     0   10           1
 -4  STRESS      6    1
 -5  SXX         1    4    1    1
 -5  SYY         1    4    2    2
 -5  SZZ         1    4    3    3
 -5  SXY         1    4    1    2
 -5  SYZ         1    4    2    3
 -5  SZX         1    4    3    1
 -1         1-2.97016E+00-2.97015E+00-6.92997E+00 7.39619E-06 8.80067E-01 4.37334E-01
 -1         2-1.23113E+00-1.23113E+00-2.87251E+00-2.29249E-07 2.79926E-01 1.62793E-01
 -1         3 8.08780E-01 1.35803E+00-1.48377E+00 2.74579E-01-8.79413E-01 1.62788E-01
 -1         4 9.91852E-01 4.42777E-01-4.71749E+00 2.74585E-01-2.79219E-01 4.37342E-01
 -1         5-2.97016E+00-2.97015E+00-6.92997E+00-7.39619E-06 8.80067E-01-4.37334E-01
 -1         6-1.23113E+00-1.23113E+00-2.87251E+00 2.29249E-07 2.79926E-01-1.62793E-01
 -1         7 8.08780E-01 1.35803E+00-1.48377E+00-2.74579E-01-8.79413E-01-1.62788E-01
 -1         8 9.91852E-01 4.42777E-01-4.71749E+00-2.74585E-01-2.79219E-01-4.37342E-01
 -1         9-2.03646E-02-1.47012E-02-1.00032E+02-1.06146E-11 1.84138E-02-3.47962E-11
 -1        10-2.69783E-03 8.38574E-03-9.99964E+01 2.71029E-03 9.03828E-03 1.88671E-03
 -1        11-2.14637E-03-2.72669E-02-1.00007E+02-2.02671E-02-8.33987E-03-2.67590E-03
 -1        12 1.46529E-02 3.00670E-02-1.00008E+02 1.26753E-11 5.59794E-03-4.62821E-11
 -1        13-2.69783E-03 8.38574E-03-9.99964E+01-2.71029E-03 9.03828E-03-1.88671E-03
 -1        14 2.46544E-02 4.11591E-02-9.99381E+01 7.00220E-12 3.20974E-02-3.76363E-11
 -1        15-9.26021E-03-7.49144E-02-9.99830E+01 3.75441E-13 1.01570E-02-4.91159E-11
 -1        16-2.14637E-03-2.72669E-02-1.00007E+02 2.02671E-02-8.33987E-03 2.67590E-03
 -3
    1PSTEP                        30           3           3          
  100CL  110 2.035000000          16                     0   10           1
 -4  CONTACT     6    1
 -5  COPEN       1    4    1    1
 -5  CSLIP1      1    4    2    2
 -5  CSLIP2      1    4    3    3
 -5  CPRESS      1    4    1    2
 -5  CSHEAR1     1    4    2    3
 -5  CSHEAR2     1    4    3    1
 -1         1 0.00000E+00 0.00000E+00 0.00000E+00 0.00000E+00 0.00000E+00 0.00000E+00
 -1         2 0.00000E+00 0.00000E+00 0.00000E+00 0.00000E+00 0.00000E+00 0.00000E+00
 -1         3 0.00000E+00 0.00000E+00 0.00000E+00 0.00000E+00 0.00000E+00 0.00000E+00
 -1         4 0.00000E+00 0.00000E+00 0.00000E+00 0.00000E+00 0.00000E+00 0.00000E+00
 -1         5 0.00000E+00 0.00000E+00 0.00000E+00 0.00000E+00 0.00000E+00 0.00000E+00
 -1         6 0.00000E+00 0.00000E+00 0.00000E+00 0.00000E+00 0.00000E+00 0.00000E+00
 -1         7 0.00000E+00 0.00000E+00 0.00000E+00 0.00000E+00 0.00000E+00 0.00000E+00
 -1         8 0.00000E+00 0.00000E+00 0.00000E+00 0.00000E+00 0.00000E+00 0.00000E+00
 -1         9-1.00056E-05-4.39822E-13 1.00025E-01 1.00056E+02 2.10736E-11 9.89910E-03
 -1        10-1.00018E-05 1.52150E-05 1.00009E-01 1.00018E+02-1.61664E-06 9.89524E-03
 -1        11 0.00000E+00 0.00000E+00 0.00000E+00 0.00000E+00 0.00000E+00 0.00000E+00
 -1        12 0.00000E+00 0.00000E+00 0.00000E+00 0.00000E+00 0.00000E+00 0.00000E+00
 -1        13-1.00018E-05-1.52150E-05 1.00009E-01 1.00018E+02 1.61662E-06 9.89524E-03
 -1        14-9.99218E-06-4.32290E-13 9.99940E-02 9.99218E+01 1.06115E-11 9.88564E-03
 -1        15 0.00000E+00 0.00000E+00 0.00000E+00 0.00000E+00 0.00000E+00 0.00000E+00
 -1        16 0.00000E+00 0.00000E+00 0.00000E+00 0.00000E+00 0.00000E+00 0.00000E+00
 -3
    1PSTEP                        31           4           3          
  100CL  111 2.057500000          16                     0   11           1
 -4  DISP        4    1
 -5  D1          1    2    1    0
 -5  D2          1    2    2    0
 -5  D3          1    2    3    0
 -5  ALL         1    2    0    0    1ALL
 -1         1 0.00000E+00 0.00000E+00 0.00000E+00
 -1         2 0.00000E+00 0.00000E+00 0.00000E+00
 -1         3 2.01557E-06 3.46577E-06-1.01619E-05
 -1         4 5.41508E-06 1.08969E-05-2.45157E-05
 -1         5 0.00000E+00 0.00000E+00 0.00000E+00
 -1         6 0.00000E+00 0.00000E+00 0.00000E+00
 -1         7-2.01557E-06 3.46577E-06-1.01619E-05
 -1         8-5.41508E-06 1.08969E-05-2.45157E-05
 -1         9-1.18245E-13 1.00037E-01-3.08112E-05
 -1        10 2.02135E-05 1.00017E-01-2.87761E-05
 -1        11 2.02232E-05 1.00020E-01-1.24112E-04
 -1        12 0.00000E+00 1.00040E-01-1.26169E-04
 -1        13-2.02135E-05 1.00017E-01-2.87761E-05
 -1        14-1.18236E-13 9.99970E-02-2.67339E-05
 -1        15 0.00000E+00 1.00000E-01-1.22031E-04
 -1        16-2.02232E-05 1.00020E-01-1.24112E-04
 -3
    1PSTEP                        32           4           3          
  100CL  111 2.057500000          16                     0   11           1
 -4  STRESS      6    1
 -5  SXX         1    4    1    1
 -5  SYY         1    4    2    2
 -5  SZZ         1    4    3    3
 -5  SXY         1    4    1    2
 -5  SYZ         1    4    2    3
 -5  SZX         1    4    3    1
 -1         1-2.97016E+00-2.97015E+00-6.92997E+00 7.39619E-06 8.80067E-01 4.37334E-01
 -1         2-1.23113E+00-1.23113E+00-2.87251E+00-2.29249E-07 2.79926E-01 1.62793E-01
 -1         3 8.08780E-01 1.35803E+00-1.48377E+00 2.74579E-01-8.79413E-01 1.62788E-01
 -1         4 9.91852E-01 4.42777E-01-4.71749E+00 2.74585E-01-2.79219E-01 4.37342E-01
 -1         5-2.97016E+00-2.97015E+00-6.92997E+00-7.39619E-06 8.80067E-01-4.37334E-01
 -1         6-1.23113E+00-1.23113E+00-2.87251E+00 2.29249E-07 2.79926E-01-1.62793E-01
 -1         7 8.08780E-01 1.35803E+00-1.48377E+00-2.74579E-01-8.79413E-01-1.62788E-01
 -1         8 9.91852E-01 4.42777E-01-4.71749E+00-2.74585E-01-2.79219E-01-4.37342E-01
 -1         9-2.03646E-02-1.47012E-02-1.00032E+02-1.80455E-11 1.84138E-02-3.11236E-11
 -1        10-2.69783E-03 8.38574E-03-9.99964E+01 2.71029E-03 9.03828E-03 1.88671E-03
 -1        11-2.14637E-03-2.72669E-02-1.00007E+02-2.02671E-02-8.33987E-03-2.67590E-03
 -1        12 1.46529E-02 3.00670E-02-1.00008E+02 2.10734E-11 5.59794E-03-4.42547E-11
 -1        13-2.69783E-03 8.38574E-03-9.99964E+01-2.71029E-03 9.03828E-03-1.88671E-03
 -1        14 2.46544E-02 4.11591E-02-9.99381E+01 4.91367E-12 3.20974E-02-3.49068E-11
 -1        15-9.26021E-03-7.49144E-02-9.99830E+01 1.27675E-12 1.01570E-02-4.80314E-11
 -1        16-2.14637E-03-2.72669E-02-1.00007E+02 2.02671E-02-8.33987E-03 2.67590E-03
 -3
    1PSTEP                        33           4           3          
  100CL  111 2.057500000          16                     0   11           1
 -4  CONTACT     6    1
 -5  COPEN       1    4    1    1
 -5  CSLIP1      1    4    2    2
 -5  CSLIP2      1    4    3    3
 -5  CPRESS      1    4    1    2
 -5  CSHEAR1     1    4    2    3
 -5  CSHEAR2     1    4    3    1
 -1         1 0.00000E+00 0.00000E+00 0.00000E+00 0.00000E+00 0.00000E+00 0.00000E+00
 -1         2 0.00000E+00 0.00000E+00 0.00000E+00 0.00000E+00 0.00000E+00 0.00000E+00
 -1         3 0.00000E+00 0.00000E+00 0.00000E+00 0.00000E+00 0.00000E+00 0.00000E+00
 -1         4 0.00000E+00 0.00000E+00 0.00000E+00 0.00000E+00 0.00000E+00 0.00000E+00
 -1         5 0.00000E+00 0.00000E+00 0.00000E+00 0.00000E+00 0.00000E+00 0.00000E+00
 -1         6 0.00000E+00 0.00000E+00 0.00000E+00 0.00000E+00 0.00000E+00 0.00000E+00
 -1         7 0.00000E+00 0.00000E+00 0.00000E+00 0.00000E+00 0.00000E+00 0.00000E+00
 -1         8 0.00000E+00 0.00000E+00 0.00000E+00 0.00000E+00 0.00000E+00 0.00000E+00
 -1         9-1.00056E-05-4.39705E-13 1.00025E-01 1.00056E+02 2.11912E-11 9.89910E-03
 -1        10-1.00018E-05 1.52150E-05 1.00009E-01 1.00018E+02-1.61664E-06 9.89524E-03
 -1        11 0.00000E+00 0.00000E+00 0.00000E+00 0.00000E+00 0.00000E+00 0.00000E+00
 -1        12 0.00000E+00 0.00000E+00 0.00000E+00 0.00000E+00 0.00000E+00 0.00000E+00
 -1        13-1.00018E-05-1.52150E-05 1.00009E-01 1.00018E+02 1.61662E-06 9.89524E-03
 -1        14-9.99218E-06-4.32170E-13 9.99940E-02 9.99218E+01 1.07315E-11 9.88564E-03
 -1        15 0.00000E+00 0.00000E+00 0.00000E+00 0.00000E+00 0.00000E+00 0.00000E+00
 -1        16 0.00000E+00 0.00000E+00 0.00000E+00 0.00000E+00 0.00000E+00 0.00000E+00
 -3
    1PSTEP                        34           5           3          
  100CL  112 2.091250000          16                     0   12           1
 -4  DISP        4    1
 -5  D1          1    2    1    0
 -5  D2          1    2    2    0
 -5  D3          1    2    3    0
 -5  ALL         1    2    0    0    1ALL
 -1         1 0.00000E+00 0.00000E+00 0.00000E+00
 -1         2 0.00000E+00 0.00000E+00 0.00000E+00
 -1         3 2.01557E-06 3.46577E-06-1.01619E-05
 -1         4 5.41508E-06 1.08969E-05-2.45157E-05
 -1         5 0.00000E+00 0.00000E+00 0.00000E+00
 -1         6 0.00000E+00 0.00000E+00 0.00000E+00
 -1         7-2.01557E-06 3.46577E-06-1.01619E-05
 -1         8-5.41508E-06 1.08969E-05-2.45157E-05
 -1         9-1.18320E-13 1.00037E-01-3.08112E-05
 -1        10 2.02135E-05 1.00017E-01-2.87761E-05
 -1        11 2.02232E-05 1.00020E-01-1.24112E-04
 -1        12 0.00000E+00 1.00040E-01-1.26169E-04
 -1        13-2.02135E-05 1.00017E-01-2.87761E-05
 -1        14-1.18312E-13 9.99970E-02-2.67339E-05
 -1        15 0.00000E+00 1.00000E-01-1.22031E-04
 -1        16-2.02232E-05 1.00020E-01-1.24112E-04
 -3
    1PSTEP                        35           5           3          
  100CL  112 2.091250000          16                     0   12           1
 -4  STRESS      6    1
 -5  SXX         1    4    1    1
 -5  SYY         1    4    2    2
 -5  SZZ         1    4    3    3
 -5  SXY         1    4    1    2
 -5  SYZ         1    4    2    3
 -5  SZX         1    4    3    1
 -1         1-2.97016E+00-2.97015E+00-6.92997E+00 7.39619E-06 8.80067E-01 4.37334E-01
 -1         2-1.23113E+00-1.23113E+00-2.87251E+00-2.29249E-07 2.79926E-01 1.62793E-01
 -1         3 8.08780E-01 1.35803E+00-1.48377E+00 2.74579E-01-8.79413E-01 1.62788E-01
 -1         4 9.91852E-01 4.42777E-01-4.71749E+00 2.74585E-01-2.79219E-01 4.37342E-01
 -1         5-2.97016E+00-2.97015E+00-6.92997E+00-7.39619E-06 8.80067E-01-4.37334E-01
 -1         6-1.23113E+00-1.23113E+00-2.87251E+00 2.29249E-07 2.79926E-01-1.62793E-01
 -1         7 8.08780E-01 1.35803E+00-1.48377E+00-2.74579E-01-8.79413E-01-1.62788E-01
 -1         8 9.91852E-01 4.42777E-01-4.71749E+00-2.74585E-01-2.79219E-01-4.37342E-01
 -1         9-2.03646E-02-1.47012E-02-1.00032E+02-2.43864E-11 1.84138E-02-3.12113E-11
 -1        10-2.69783E-03 8.38574E-03-9.99964E+01 2.71029E-03 9.03828E-03 1.88671E-03
 -1        11-2.14637E-03-2.72669E-02-1.00007E+02-2.02671E-02-8.33987E-03-2.67590E-03
 -1        12 1.46529E-02 3.00670E-02-1.00008E+02 9.63809E-12 5.59794E-03-4.29259E-11
 -1        13-2.69783E-03 8.38574E-03-9.99964E+01-2.71029E-03 9.03828E-03-1.88671E-03
 -1        14 2.46544E-02 4.11591E-02-9.99381E+01-9.47059E-15 3.20974E-02-3.47768E-11
 -1        15-9.26021E-03-7.49144E-02-9.99830E+01 1.70566E-13 1.01570E-02-4.64873E-11
 -1        16-2.14637E-03-2.72669E-02-1.00007E+02 2.02671E-02-8.33987E-03 2.67590E-03
 -3
    1PSTEP                        36           5           3          
  100CL  112 2.091250000          16                     0   12           1
 -4  CONTACT     6    1
 -5  COPEN       1    4    1    1
 -5  CSLIP1      1    4    2    2
 -5  CSLIP2      1    4    3    3
 -5  CPRESS      1    4    1    2
 -5  CSHEAR1     1    4    2    3
 -5  CSHEAR2     1    4    3    1
 -1         1 0.00000E+00 0.00000E+00 0.00000E+00 0.00000E+00 0.00000E+00 0.00000E+00
 -1         2 0.00000E+00 0.00000E+00 0.00000E+00 0.00000E+00 0.00000E+00 0.00000E+00
 -1         3 0.00000E+00 0.00000E+00 0.00000E+00 0.00000E+00 0.00000E+00 0.00000E+00
 -1         4 0.00000E+00 0.00000E+00 0.00000E+00 0.00000E+00 0.00000E+00 0.00000E+00
 -1         5 0.00000E+00 0.00000E+00 0.00000E+00 0.00000E+00 0.00000E+00 0.00000E+00
 -1         6 0.00000E+00 0.00000E+00 0.00000E+00 0.00000E+00 0.00000E+00 0.00000E+00
 -1         7 0.00000E+00 0.00000E+00 0.00000E+00 0.00000E+00 0.00000E+00 0.00000E+00
 -1         8 0.00000E+00 0.00000E+00 0.00000E+00 0.00000E+00 0.00000E+00 0.00000E+00
 -1         9-1.00056E-05-4.39780E-13 1.00025E-01 1.00056E+02 2.11160E-11 9.89910E-03
 -1        10-1.00018E-05 1.52150E-05 1.00009E-01 1.00018E+02-1.61664E-06 9.89524E-03
 -1        11 0.00000E+00 0.00000E+00 0.00000E+00 0.00000E+00 0.00000E+00 0.00000E+00
 -1        12 0.00000E+00 0.00000E+00 0.00000E+00 0.00000E+00 0.00000E+00 0.00000E+00
 -1        13-1.00018E-05-1.52150E-05 1.00009E-01 1.00018E+02 1.61662E-06 9.89524E-03
 -1        14-9.99218E-06-4.32246E-13 9.99940E-02 9.99218E+01 1.06557E-11 9.88564E-03
 -1        15 0.00000E+00 0.00000E+00 0.00000E+00 0.00000E+00 0.00000E+00 0.00000E+00
 -1        16 0.00000E+00 0.00000E+00 0.00000E+00 0.00000E+00 0.00000E+00 0.00000E+00
 -3
    1PSTEP                        37           6           3          
  100CL  113 2.141875000          16                     0   13           1
 -4  DISP        4    1
 -5  D1          1    2    1    0
 -5  D2          1    2    2    0
 -5  D3          1    2    3    0
 -5  ALL         1    2    0    0    1ALL
 -1         1 0.00000E+00 0.00000E+00 0.00000E+00
 -1         2 0.00000E+00 0.00000E+00 0.00000E+00
 -1         3 2.01557E-06 3.46577E-06-1.01619E-05
 -1         4 5.41508E-06 1.08969E-05-2.45157E-05
 -1         5 0.00000E+00 0.00000E+00 0.00000E+00
 -1         6 0.00000E+00 0.00000E+00 0.00000E+00
 -1         7-2.01557E-06 3.46577E-06-1.01619E-05
 -1         8-5.41508E-06 1.08969E-05-2.45157E-05
 -1         9-1.18235E-13 1.00037E-01-3.08112E-05
 -1        10 2.02135E-05 1.00017E-01-2.87761E-05
 -1        11 2.02232E-05 1.00020E-01-1.24112E-04
 -1        12 0.00000E+00 1.00040E-01-1.26169E-04
 -1        13-2.02135E-05 1.00017E-01-2.87761E-05
 -1        14-1.18235E-13 9.99970E-02-2.67339E-05
 -1        15 0.00000E+00 1.00000E-01-1.22031E-04
 -1        16-2.02232E-05 1.00020E-01-1.24112E-04
 -3
    1PSTEP                        38           6           3          
  100CL  113 2.141875000          16                     0   13           1
 -4  STRESS      6    1
 -5  SXX         1    4    1    1
 -5  SYY         1    4    2    2
 -5  SZZ         1    4    3    3
 -5  SXY         1    4    1    2
 -5  SYZ         1    4    2    3
 -5  SZX         1    4    3    1
 -1         1-2.97016E+00-2.97015E+00-6.92997E+00 7.39619E-06 8.80067E-01 4.37334E-01
 -1         2-1.23113E+00-1.23113E+00-2.87251E+00-2.29249E-07 2.79926E-01 1.62793E-01
 -1         3 8.08780E-01 1.35803E+00-1.48377E+00 2.74579E-01-8.79413E-01 1.62788E-01
 -1         4 9.91852E-01 4.42777E-01-4.71749E+00 2.74585E-01-2.79219E-01 4.37342E-01
 -1         5-2.97016E+00-2.97015E+00-6.92997E+00-7.39619E-06 8.80067E-01-4.37334E-01
 -1         6-1.23113E+00-1.23113E+00-2.87251E+00 2.29249E-07 2.79926E-01-1.62793E-01
 -1         7 8.08780E-01 1.35803E+00-1.48377E+00-2.74579E-01-8.79413E-01-1.62788E-01
 -1         8 9.91852E-01 4.42777E-01-4.71749E+00-2.74585E-01-2.79219E-01-4.37342E-01
 -1         9-2.03646E-02-1.47012E-02-1.00032E+02-7.97480E-12 1.84138E-02-3.32697E-11
 -1        10-2.69783E-03 8.38574E-03-9.99964E+01 2.71029E-03 9.03828E-03 1.88671E-03
 -1        11-2.14637E-03-2.72669E-02-1.00007E+02-2.02671E-02-8.33987E-03-2.67590E-03
 -1        12 1.46529E-02 3.00670E-02-1.00008E+02 3.32159E-12 5.59794E-03-4.48654E-11
 -1        13-2.69783E-03 8.38574E-03-9.99964E+01-2.71029E-03 9.03828E-03-1.88671E-03
 -1        14 2.46544E-02 4.11591E-02-9.99381E+01 1.48881E-11 3.20974E-02-3.31963E-11
 -1        15-9.26021E-03-7.49144E-02-9.99830E+01-6.20926E-12 1.01570E-02-4.47896E-11
 -1        16-2.14637E-03-2.72669E-02-1.00007E+02 2.02671E-02-8.33987E-03 2.67590E-03
 -3
    1PSTEP                        39           6           3          
  100CL  113 2.141875000          16                     0   13           1
 -4  CONTACT     6    1
 -5  COPEN       1    4    1    1
 -5  CSLIP1      1    4    2    2
 -5  CSLIP2      1    4    3    3
 -5  CPRESS      1    4    1    2
 -5  CSHEAR1     1    4    2    3
 -5  CSHEAR2     1    4    3    1
 -1         1 0.00000E+00 0.00000E+00 0.00000E+00 0.00000E+00 0.00000E+00 0.00000E+00
 -1         2 0.00000E+00 0.00000E+00 0.00000E+00 0.00000E+00 0.00000E+00 0.00000E+00
 -1         3 0.00000E+00 0.00000E+00 0.00000E+00 0.00000E+00 0.00000E+00 0.00000E+00
 -1         4 0.00000E+00 0.00000E+00 0.00000E+00 0.00000E+00 0.00000E+00 0.00000E+00
 -1         5 0.00000E+00 0.00000E+00 0.00000E+00 0.00000E+00 0.00000E+00 0.00000E+00
 -1         6 0.00000E+00 0.00000E+00 0.00000E+00 0.00000E+00 0.00000E+00 0.00000E+00
 -1         7 0.00000E+00 0.00000E+00 0.00000E+00 0.00000E+00 0.00000E+00 0.00000E+00
 -1         8 0.00000E+00 0.00000E+00 0.00000E+00 0.00000E+00 0.00000E+00 0.00000E+00
 -1         9-1.00056E-05-4.39695E-13 1.00025E-01 1.00056E+02 2.12012E-11 9.89910E-03
 -1        10-1.00018E-05 1.52150E-05 1.00009E-01 1.00018E+02-1.61664E-06 9.89524E-03
 -1        11 0.00000E+00 0.00000E+00 0.00000E+00 0.00000E+00 0.00000E+00 0.00000E+00
 -1        12 0.00000E+00 0.00000E+00 0.00000E+00 0.00000E+00 0.00000E+00 0.00000E+00
 -1        13-1.00018E-05-1.52150E-05 1.00009E-01 1.00018E+02 1.61662E-06 9.89524E-03
 -1        14-9.99218E-06-4.32169E-13 9.99940E-02 9.99218E+01 1.07319E-11 9.88564E-03
 -1        15 0.00000E+00 0.00000E+00 0.00000E+00 0.00000E+00 0.00000E+00 0.00000E+00
 -1        16 0.00000E+00 0.00000E+00 0.00000E+00 0.00000E+00 0.00000E+00 0.00000E+00
 -3
    1PSTEP                        40           7           3          
  100CL  114 2.217812500          16                     0   14           1
 -4  DISP        4    1
 -5  D1          1    2    1    0
 -5  D2          1    2    2    0
 -5  D3          1    2    3    0
 -5  ALL         1    2    0    0    1ALL
 -1         1 0.00000E+00 0.00000E+00 0.00000E+00
 -1         2 0.00000E+00 0.00000E+00 0.00000E+00
 -1         3 2.01557E-06 3.46577E-06-1.01619E-05
 -1         4 5.41508E-06 1.08969E-05-2.45157E-05
 -1         5 0.00000E+00 0.00000E+00 0.00000E+00
 -1         6 0.00000E+00 0.00000E+00 0.00000E+00
 -1         7-2.01557E-06 3.46577E-06-1.01619E-05
 -1         8-5.41508E-06 1.08969E-05-2.45157E-05
 -1         9-1.18293E-13 1.00037E-01-3.08112E-05
 -1        10 2.02135E-05 1.00017E-01-2.87761E-05
 -1        11 2.02232E-05 1.00020E-01-1.24112E-04
 -1        12 0.00000E+00 1.00040E-01-1.26169E-04
 -1        13-2.02135E-05 1.00017E-01-2.87761E-05
 -1        14-1.18289E-13 9.99970E-02-2.67339E-05
 -1        15 0.00000E+00 1.00000E-01-1.22031E-04
 -1        16-2.02232E-05 1.00020E-01-1.24112E-04
 -3
    1PSTEP                        41           7           3          
  100CL  114 2.217812500          16                     0   14           1
 -4  STRESS      6    1
 -5  SXX         1    4    1    1
 -5  SYY         1    4    2    2
 -5  SZZ         1    4    3    3
 -5  SXY         1    4    1    2
 -5  SYZ         1    4    2    3
 -5  SZX         1    4    3    1
 -1         1-2.97016E+00-2.97015E+00-6.92997E+00 7.39619E-06 8.80067E-01 4.37334E-01
 -1         2-1.23113E+00-1.23113E+00-2.87251E+00-2.29249E-07 2.79926E-01 1.62793E-01
 -1         3 8.08780E-01 1.35803E+00-1.48377E+00 2.74579E-01-8.79413E-01 1.62788E-01
 -1         4 9.91852E-01 4.42777E-01-4.71749E+00 2.74585E-01-2.79219E-01 4.37342E-01
 -1         5-2.97016E+00-2.97015E+00-6.92997E+00-7.39619E-06 8.80067E-01-4.37334E-01
 -1         6-1.23113E+00-1.23113E+00-2.87251E+00 2.29249E-07 2.79926E-01-1.62793E-01
 -1         7 8.08780E-01 1.35803E+00-1.48377E+00-2.74579E-01-8.79413E-01-1.62788E-01
 -1         8 9.91852E-01 4.42777E-01-4.71749E+00-2.74585E-01-2.79219E-01-4.37342E-01
 -1         9-2.03646E-02-1.47012E-02-1.00032E+02-9.57491E-12 1.84138E-02-3.27799E-11
 -1        10-2.69783E-03 8.38574E-03-9.99964E+01 2.71029E-03 9.03828E-03 1.88671E-03
 -1        11-2.14637E-03-2.72669E-02-1.00007E+02-2.02671E-02-8.33987E-03-2.67590E-03
 -1        12 1.46529E-02 3.00670E-02-1.00008E+02 1.60101E-11 5.59794E-03-4.50513E-11
 -1        13-2.69783E-03 8.38574E-03-9.99964E+01-2.71029E-03 9.03828E-03-1.88671E-03
 -1        14 2.46544E-02 4.11591E-02-9.99381E+01 1.32413E-11 3.20974E-02-3.45103E-11
 -1        15-9.26021E-03-7.49144E-02-9.99830E+01-3.06980E-12 1.01570E-02-4.67941E-11
 -1        16-2.14637E-03-2.72669E-02-1.00007E+02 2.02671E-02-8.33987E-03 2.67590E-03
 -3
    1PSTEP                        42           7           3          
  100CL  114 2.217812500          16                     0   14           1
 -4  CONTACT     6    1
 -5  COPEN       1    4    1    1
 -5  CSLIP1      1    4    2    2
 -5  CSLIP2      1    4    3    3
 -5  CPRESS      1    4    1    2
 -5  CSHEAR1     1    4    2    3
 -5  CSHEAR2     1    4    3    1
 -1         1 0.00000E+00 0.00000E+00 0.00000E+00 0.00000E+00 0.00000E+00 0.00000E+00
 -1         2 0.00000E+00 0.00000E+00 0.00000E+00 0.00000E+00 0.00000E+00 0.00000E+00
 -1         3 0.00000E+00 0.00000E+00 0.00000E+00 0.00000E+00 0.00000E+00 0.00000E+00
 -1         4 0.00000E+00 0.00000E+00 0.00000E+00 0.00000E+00 0.00000E+00 0.00000E+00
 -1         5 0.00000E+00 0.00000E+00 0.00000E+00 0.00000E+00 0.00000E+00 0.00000E+00
 -1         6 0.00000E+00 0.00000E+00 0.00000E+00 0.00000E+00 0.00000E+00 0.00000E+00
 -1         7 0.00000E+00 0.00000E+00 0.00000E+00 0.00000E+00 0.00000E+00 0.00000E+00
 -1         8 0.00000E+00 0.00000E+00 0.00000E+00 0.00000E+00 0.00000E+00 0.00000E+00
 -1         9-1.00056E-05-4.39753E-13 1.00025E-01 1.00056E+02 2.11430E-11 9.89910E-03
 -1        10-1.00018E-05 1.52150E-05 1.00009E-01 1.00018E+02-1.61664E-06 9.89524E-03
 -1        11 0.00000E+00 0.00000E+00 0.00000E+00 0.00000E+00 0.00000E+00 0.00000E+00
 -1        12 0.00000E+00 0.00000E+00 0.00000E+00 0.00000E+00 0.00000E+00 0.00000E+00
 -1        13-1.00018E-05-1.52150E-05 1.00009E-01 1.00018E+02 1.61662E-06 9.89524E-03
 -1        14-9.99218E-06-4.32223E-13 9.99940E-02 9.99218E+01 1.06782E-11 9.88564E-03
 -1        15 0.00000E+00 0.00000E+00 0.00000E+00 0.00000E+00 0.00000E+00 0.00000E+00
 -1        16 0.00000E+00 0.00000E+00 0.00000E+00 0.00000E+00 0.00000E+00 0.00000E+00
 -3
    1PSTEP                        43           8           3          
  100CL  115 2.331718750          16                     0   15           1
 -4  DISP        4    1
 -5  D1          1    2    1    0
 -5  D2          1    2    2    0
 -5  D3          1    2    3    0
 -5  ALL         1    2    0    0    1ALL
 -1         1 0.00000E+00 0.00000E+00 0.00000E+00
 -1         2 0.00000E+00 0.00000E+00 0.00000E+00
 -1         3 2.01557E-06 3.46577E-06-1.01619E-05
 -1         4 5.41508E-06 1.08969E-05-2.45157E-05
 -1         5 0.00000E+00 0.00000E+00 0.00000E+00
 -1         6 0.00000E+00 0.00000E+00 0.00000E+00
 -1         7-2.01557E-06 3.46577E-06-1.01619E-05
 -1         8-5.41508E-06 1.08969E-05-2.45157E-05
 -1         9-1.18299E-13 1.00037E-01-3.08112E-05
 -1        10 2.02135E-05 1.00017E-01-2.87761E-05
 -1        11 2.02232E-05 1.00020E-01-1.24112E-04
 -1        12 0.00000E+00 1.00040E-01-1.26169E-04
 -1        13-2.02135E-05 1.00017E-01-2.87761E-05
 -1        14-1.18299E-13 9.99970E-02-2.67339E-05
 -1        15 0.00000E+00 1.00000E-01-1.22031E-04
 -1        16-2.02232E-05 1.00020E-01-1.24112E-04
 -3
    1PSTEP                        44           8           3          
  100CL  115 2.331718750          16                     0   15           1
 -4  STRESS      6    1
 -5  SXX         1    4    1    1
 -5  SYY         1    4    2    2
 -5  SZZ         1    4    3    3
 -5  SXY         1    4    1    2
 -5  SYZ         1    4    2    3
 -5  SZX         1    4    3    1
 -1         1-2.97016E+00-2.97015E+00-6.92997E+00 7.39619E-06 8.80067E-01 4.37334E-01
 -1         2-1.23113E+00-1.23113E+00-2.87251E+00-2.29249E-07 2.79926E-01 1.62793E-01
 -1         3 8.08780E-01 1.35803E+00-1.48377E+00 2.74579E-01-8.79413E-01 1.62788E-01
 -1         4 9.91852E-01 4.42777E-01-4.71749E+00 2.74585E-01-2.79219E-01 4.37342E-01
 -1         5-2.97016E+00-2.97015E+00-6.92997E+00-7.39619E-06 8.80067E-01-4.37334E-01
 -1         6-1.23113E+00-1.23113E+00-2.87251E+00 2.29249E-07 2.79926E-01-1.62793E-01
 -1         7 8.08780E-01 1.35803E+00-1.48377E+00-2.74579E-01-8.79413E-01-1.62788E-01
 -1         8 9.91852E-01 4.42777E-01-4.71749E+00-2.74585E-01-2.79219E-01-4.37342E-01
 -1         9-2.03646E-02-1.47012E-02-1.00032E+02-9.94088E-12 1.84138E-02-3.26878E-11
 -1        10-2.69783E-03 8.38574E-03-9.99964E+01 2.71029E-03 9.03828E-03 1.88671E-03
 -1        11-2.14637E-03-2.72669E-02-1.00007E+02-2.02671E-02-8.33987E-03-2.67590E-03
 -1        12 1.46529E-02 3.00670E-02-1.00008E+02 1.59249E-11 5.59794E-03-4.41867E-11
 -1        13-2.69783E-03 8.38574E-03-9.99964E+01-2.71029E-03 9.03828E-03-1.88671E-03
 -1        14 2.46544E-02 4.11591E-02-9.99381E+01 3.99337E-12 3.20974E-02-3.27264E-11
 -1        15-9.26021E-03-7.49144E-02-9.99830E+01 7.34683E-12 1.01570E-02-4.42261E-11
 -1        16-2.14637E-03-2.72669E-02-1.00007E+02 2.02671E-02-8.33987E-03 2.67590E-03
 -3
    1PSTEP                        45           8           3          
  100CL  115 2.331718750          16                     0   15           1
 -4  CONTACT     6    1
 -5  COPEN       1    4    1    1
 -5  CSLIP1      1    4    2    2
 -5  CSLIP2      1    4    3    3
 -5  CPRESS      1    4    1    2
 -5  CSHEAR1     1    4    2    3
 -5  CSHEAR2     1    4    3    1
 -1         1 0.00000E+00 0.00000E+00 0.00000E+00 0.00000E+00 0.00000E+00 0.00000E+00
 -1         2 0.00000E+00 0.00000E+00 0.00000E+00 0.00000E+00 0.00000E+00 0.00000E+00
 -1         3 0.00000E+00 0.00000E+00 0.00000E+00 0.00000E+00 0.00000E+00 0.00000E+00
 -1         4 0.00000E+00 0.00000E+00 0.00000E+00 0.00000E+00 0.00000E+00 0.00000E+00
 -1         5 0.00000E+00 0.00000E+00 0.00000E+00 0.00000E+00 0.00000E+00 0.00000E+00
 -1         6 0.00000E+00 0.00000E+00 0.00000E+00 0.00000E+00 0.00000E+00 0.00000E+00
 -1         7 0.00000E+00 0.00000E+00 0.00000E+00 0.00000E+00 0.00000E+00 0.00000E+00
 -1         8 0.00000E+00 0.00000E+00 0.00000E+00 0.00000E+00 0.00000E+00 0.00000E+00
 -1         9-1.00056E-05-4.39758E-13 1.00025E-01 1.00056E+02 2.11377E-11 9.89910E-03
 -1        10-1.00018E-05 1.52150E-05 1.00009E-01 1.00018E+02-1.61664E-06 9.89524E-03
 -1        11 0.00000E+00 0.00000E+00 0.00000E+00 0.00000E+00 0.00000E+00 0.00000E+00
 -1        12 0.00000E+00 0.00000E+00 0.00000E+00 0.00000E+00 0.00000E+00 0.00000E+00
 -1        13-1.00018E-05-1.52150E-05 1.00009E-01 1.00018E+02 1.61662E-06 9.89524E-03
 -1        14-9.99218E-06-4.32233E-13 9.99940E-02 9.99218E+01 1.06687E-11 9.88564E-03
 -1        15 0.00000E+00 0.00000E+00 0.00000E+00 0.00000E+00 0.00000E+00 0.00000E+00
 -1        16 0.00000E+00 0.00000E+00 0.00000E+00 0.00000E+00 0.00000E+00 0.00000E+00
 -3
    1PSTEP                        46           9           3          
  100CL  116 2.502578125          16                     0   16           1
 -4  DISP        4    1
 -5  D1          1    2    1    0
 -5  D2          1    2    2    0
 -5  D3          1    2    3    0
 -5  ALL         1    2    0    0    1ALL
 -1         1 0.00000E+00 0.00000E+00 0.00000E+00
 -1         2 0.00000E+00 0.00000E+00 0.00000E+00
 -1         3 2.01557E-06 3.46577E-06-1.01619E-05
 -1         4 5.41508E-06 1.08969E-05-2.45157E-05
 -1         5 0.00000E+00 0.00000E+00 0.00000E+00
 -1         6 0.00000E+00 0.00000E+00 0.00000E+00
 -1         7-2.01557E-06 3.46577E-06-1.01619E-05
 -1         8-5.41508E-06 1.08969E-05-2.45157E-05
 -1         9-1.18290E-13 1.00037E-01-3.08112E-05
 -1        10 2.02135E-05 1.00017E-01-2.87761E-05
 -1        11 2.02232E-05 1.00020E-01-1.24112E-04
 -1        12 0.00000E+00 1.00040E-01-1.26169E-04
 -1        13-2.02135E-05 1.00017E-01-2.87761E-05
 -1        14-1.18287E-13 9.99970E-02-2.67339E-05
 -1        15 0.00000E+00 1.00000E-01-1.22031E-04
 -1        16-2.02232E-05 1.00020E-01-1.24112E-04
 -3
    1PSTEP                        47           9           3          
  100CL  116 2.502578125          16                     0   16           1
 -4  STRESS      6    1
 -5  SXX         1    4    1    1
 -5  SYY         1    4    2    2
 -5  SZZ         1    4    3    3
 -5  SXY         1    4    1    2
 -5  SYZ         1    4    2    3
 -5  SZX         1    4    3    1
 -1         1-2.97016E+00-2.97015E+00-6.92997E+00 7.39619E-06 8.80067E-01 4.37334E-01
 -1         2-1.23113E+00-1.23113E+00-2.87251E+00-2.29249E-07 2.79926E-01 1.62793E-01
 -1         3 8.08780E-01 1.35803E+00-1.48377E+00 2.74579E-01-8.79413E-01 1.62788E-01
 -1         4 9.91852E-01 4.42777E-01-4.71749E+00 2.74585E-01-2.79219E-01 4.37342E-01
 -1         5-2.97016E+00-2.97015E+00-6.92997E+00-7.39619E-06 8.80067E-01-4.37334E-01
 -1         6-1.23113E+00-1.23113E+00-2.87251E+00 2.29249E-07 2.79926E-01-1.62793E-01
 -1         7 8.08780E-01 1.35803E+00-1.48377E+00-2.74579E-01-8.79413E-01-1.62788E-01
 -1         8 9.91852E-01 4.42777E-01-4.71749E+00-2.74585E-01-2.79219E-01-4.37342E-01
 -1         9-2.03646E-02-1.47012E-02-1.00032E+02-2.15863E-12 1.84138E-02-3.22258E-11
 -1        10-2.69783E-03 8.38574E-03-9.99964E+01 2.71029E-03 9.03828E-03 1.88671E-03
 -1        11-2.14637E-03-2.72669E-02-1.00007E+02-2.02671E-02-8.33987E-03-2.67590E-03
 -1        12 1.46529E-02 3.00670E-02-1.00008E+02 1.47207E-12 5.59794E-03-4.32642E-11
 -1        13-2.69783E-03 8.38574E-03-9.99964E+01-2.71029E-03 9.03828E-03-1.88671E-03
 -1        14 2.46544E-02 4.11591E-02-9.99381E+01 9.95890E-12 3.20974E-02-3.34764E-11
 -1        15-9.26021E-03-7.49144E-02-9.99830E+01-9.36386E-12 1.01570E-02-4.45148E-11
 -1        16-2.14637E-03-2.72669E-02-1.00007E+02 2.02671E-02-8.33987E-03 2.67590E-03
 -3
    1PSTEP                        48           9           3          
  100CL  116 2.502578125          16                     0   16           1
 -4  CONTACT     6    1
 -5  COPEN       1    4    1    1
 -5  CSLIP1      1    4    2    2
 -5  CSLIP2      1    4    3    3
 -5  CPRESS      1    4    1    2
 -5  CSHEAR1     1    4    2    3
 -5  CSHEAR2     1    4    3    1
 -1         1 0.00000E+00 0.00000E+00 0.00000E+00 0.00000E+00 0.00000E+00 0.00000E+00
 -1         2 0.00000E+00 0.00000E+00 0.00000E+00 0.00000E+00 0.00000E+00 0.00000E+00
 -1         3 0.00000E+00 0.00000E+00 0.00000E+00 0.00000E+00 0.00000E+00 0.00000E+00
 -1         4 0.00000E+00 0.00000E+00 0.00000E+00 0.00000E+00 0.00000E+00 0.00000E+00
 -1         5 0.00000E+00 0.00000E+00 0.00000E+00 0.00000E+00 0.00000E+00 0.00000E+00
 -1         6 0.00000E+00 0.00000E+00 0.00000E+00 0.00000E+00 0.00000E+00 0.00000E+00
 -1         7 0.00000E+00 0.00000E+00 0.00000E+00 0.00000E+00 0.00000E+00 0.00000E+00
 -1         8 0.00000E+00 0.00000E+00 0.00000E+00 0.00000E+00 0.00000E+00 0.00000E+00
 -1         9-1.00056E-05-4.39749E-13 1.00025E-01 1.00056E+02 2.11463E-11 9.89910E-03
 -1        10-1.00018E-05 1.52150E-05 1.00009E-01 1.00018E+02-1.61664E-06 9.89524E-03
 -1        11 0.00000E+00 0.00000E+00 0.00000E+00 0.00000E+00 0.00000E+00 0.00000E+00
 -1        12 0.00000E+00 0.00000E+00 0.00000E+00 0.00000E+00 0.00000E+00 0.00000E+00
 -1        13-1.00018E-05-1.52150E-05 1.00009E-01 1.00018E+02 1.61662E-06 9.89524E-03
 -1        14-9.99218E-06-4.32221E-13 9.99940E-02 9.99218E+01 1.06803E-11 9.88564E-03
 -1        15 0.00000E+00 0.00000E+00 0.00000E+00 0.00000E+00 0.00000E+00 0.00000E+00
 -1        16 0.00000E+00 0.00000E+00 0.00000E+00 0.00000E+00 0.00000E+00 0.00000E+00
 -3
    1PSTEP                        49          10           3          
  100CL  117 2.758867187          16                     0   17           1
 -4  DISP        4    1
 -5  D1          1    2    1    0
 -5  D2          1    2    2    0
 -5  D3          1    2    3    0
 -5  ALL         1    2    0    0    1ALL
 -1         1 0.00000E+00 0.00000E+00 0.00000E+00
 -1         2 0.00000E+00 0.00000E+00 0.00000E+00
 -1         3 2.01557E-06 3.46577E-06-1.01619E-05
 -1         4 5.41508E-06 1.08969E-05-2.45157E-05
 -1         5 0.00000E+00 0.00000E+00 0.00000E+00
 -1         6 0.00000E+00 0.00000E+00 0.00000E+00
 -1         7-2.01557E-06 3.46577E-06-1.01619E-05
 -1         8-5.41508E-06 1.08969E-05-2.45157E-05
 -1         9-1.18219E-13 1.00037E-01-3.08112E-05
 -1        10 2.02135E-05 1.00017E-01-2.87761E-05
 -1        11 2.02232E-05 1.00020E-01-1.24112E-04
 -1        12 0.00000E+00 1.00040E-01-1.26169E-04
 -1        13-2.02135E-05 1.00017E-01-2.87761E-05
 -1        14-1.18213E-13 9.99970E-02-2.67339E-05
 -1        15 0.00000E+00 1.00000E-01-1.22031E-04
 -1        16-2.02232E-05 1.00020E-01-1.24112E-04
 -3
    1PSTEP                        50          10           3          
  100CL  117 2.758867187          16                     0   17           1
 -4  STRESS      6    1
 -5  SXX         1    4    1    1
 -5  SYY         1    4    2    2
 -5  SZZ         1    4    3    3
 -5  SXY         1    4    1    2
 -5  SYZ         1    4    2    3
 -5  SZX         1    4    3    1
 -1         1-2.97016E+00-2.97015E+00-6.92997E+00 7.39619E-06 8.80067E-01 4.37334E-01
 -1         2-1.23113E+00-1.23113E+00-2.87251E+00-2.29249E-07 2.79926E-01 1.62793E-01
 -1         3 8.08780E-01 1.35803E+00-1.48377E+00 2.74579E-01-8.79413E-01 1.62788E-01
 -1         4 9.91852E-01 4.42777E-01-4.71749E+00 2.74585E-01-2.79219E-01 4.37342E-01
 -1         5-2.97016E+00-2.97015E+00-6.92997E+00-7.39619E-06 8.80067E-01-4.37334E-01
 -1         6-1.23113E+00-1.23113E+00-2.87251E+00 2.29249E-07 2.79926E-01-1.62793E-01
 -1         7 8.08780E-01 1.35803E+00-1.48377E+00-2.74579E-01-8.79413E-01-1.62788E-01
 -1         8 9.91852E-01 4.42777E-01-4.71749E+00-2.74585E-01-2.79219E-01-4.37342E-01
 -1         9-2.03646E-02-1.47012E-02-1.00032E+02-7.33874E-12 1.84138E-02-3.23306E-11
 -1        10-2.69783E-03 8.38574E-03-9.99964E+01 2.71029E-03 9.03828E-03 1.88671E-03
 -1        11-2.14637E-03-2.72669E-02-1.00007E+02-2.02671E-02-8.33987E-03-2.67590E-03
 -1        12 1.46529E-02 3.00670E-02-1.00008E+02 1.35717E-11 5.59794E-03-4.43508E-11
 -1        13-2.69783E-03 8.38574E-03-9.99964E+01-2.71029E-03 9.03828E-03-1.88671E-03
 -1        14 2.46544E-02 4.11591E-02-9.99381E+01 1.51834E-11 3.20974E-02-3.44353E-11
 -1        15-9.26021E-03-7.49144E-02-9.99830E+01-7.58237E-12 1.01570E-02-4.64548E-11
 -1        16-2.14637E-03-2.72669E-02-1.00007E+02 2.02671E-02-8.33987E-03 2.67590E-03
 -3
    1PSTEP                        51          10           3          
  100CL  117 2.758867187          16                     0   17           1
 -4  CONTACT     6    1
 -5  COPEN       1    4    1    1
 -5  CSLIP1      1    4    2    2
 -5  CSLIP2      1    4    3    3
 -5  CPRESS      1    4    1    2
 -5  CSHEAR1     1    4    2    3
 -5  CSHEAR2     1    4    3    1
 -1         1 0.00000E+00 0.00000E+00 0.00000E+00 0.00000E+00 0.00000E+00 0.00000E+00
 -1         2 0.00000E+00 0.00000E+00 0.00000E+00 0.00000E+00 0.00000E+00 0.00000E+00
 -1         3 0.00000E+00 0.00000E+00 0.00000E+00 0.00000E+00 0.00000E+00 0.00000E+00
 -1         4 0.00000E+00 0.00000E+00 0.00000E+00 0.00000E+00 0.00000E+00 0.00000E+00
 -1         5 0.00000E+00 0.00000E+00 0.00000E+00 0.00000E+00 0.00000E+00 0.00000E+00
 -1         6 0.00000E+00 0.00000E+00 0.00000E+00 0.00000E+00 0.00000E+00 0.00000E+00
 -1         7 0.00000E+00 0.00000E+00 0.00000E+00 0.00000E+00 0.00000E+00 0.00000E+00
 -1         8 0.00000E+00 0.00000E+00 0.00000E+00 0.00000E+00 0.00000E+00 0.00000E+00
 -1         9-1.00056E-05-4.39678E-13 1.00025E-01 1.00056E+02 2.12177E-11 9.89910E-03
 -1        10-1.00018E-05 1.52150E-05 1.00009E-01 1.00018E+02-1.61664E-06 9.89524E-03
 -1        11 0.00000E+00 0.00000E+00 0.00000E+00 0.00000E+00 0.00000E+00 0.00000E+00
 -1        12 0.00000E+00 0.00000E+00 0.00000E+00 0.00000E+00 0.00000E+00 0.00000E+00
 -1        13-1.00018E-05-1.52150E-05 1.00009E-01 1.00018E+02 1.61662E-06 9.89524E-03
 -1        14-9.99218E-06-4.32148E-13 9.99940E-02 9.99218E+01 1.07539E-11 9.88564E-03
 -1        15 0.00000E+00 0.00000E+00 0.00000E+00 0.00000E+00 0.00000E+00 0.00000E+00
 -1        16 0.00000E+00 0.00000E+00 0.00000E+00 0.00000E+00 0.00000E+00 0.00000E+00
 -3
    1PSTEP                        52          11           3          
  100CL  118 3.000000000          16                     0   18           1
 -4  DISP        4    1
 -5  D1          1    2    1    0
 -5  D2          1    2    2    0
 -5  D3          1    2    3    0
 -5  ALL         1    2    0    0    1ALL
 -1         1 0.00000E+00 0.00000E+00 0.00000E+00
 -1         2 0.00000E+00 0.00000E+00 0.00000E+00
 -1         3 2.01557E-06 3.46577E-06-1.01619E-05
 -1         4 5.41508E-06 1.08969E-05-2.45157E-05
 -1         5 0.00000E+00 0.00000E+00 0.00000E+00
 -1         6 0.00000E+00 0.00000E+00 0.00000E+00
 -1         7-2.01557E-06 3.46577E-06-1.01619E-05
 -1         8-5.41508E-06 1.08969E-05-2.45157E-05
 -1         9-1.18292E-13 1.00037E-01-3.08112E-05
 -1        10 2.02135E-05 1.00017E-01-2.87761E-05
 -1        11 2.02232E-05 1.00020E-01-1.24112E-04
 -1        12 0.00000E+00 1.00040E-01-1.26169E-04
 -1        13-2.02135E-05 1.00017E-01-2.87761E-05
 -1        14-1.18287E-13 9.99970E-02-2.67339E-05
 -1        15 0.00000E+00 1.00000E-01-1.22031E-04
 -1        16-2.02232E-05 1.00020E-01-1.24112E-04
 -3
    1PSTEP                        53          11           3          
  100CL  118 3.000000000          16                     0   18           1
 -4  STRESS      6    1
 -5  SXX         1    4    1    1
 -5  SYY         1    4    2    2
 -5  SZZ         1    4    3    3
 -5  SXY         1    4    1    2
 -5  SYZ         1    4    2    3
 -5  SZX         1    4    3    1
 -1         1-2.97016E+00-2.97015E+00-6.92997E+00 7.39619E-06 8.80067E-01 4.37334E-01
 -1         2-1.23113E+00-1.23113E+00-2.87251E+00-2.29249E-07 2.79926E-01 1.62793E-01
 -1         3 8.08780E-01 1.35803E+00-1.48377E+00 2.74579E-01-8.79413E-01 1.62788E-01
 -1         4 9.91852E-01 4.42777E-01-4.71749E+00 2.74585E-01-2.79219E-01 4.37342E-01
 -1         5-2.97016E+00-2.97015E+00-6.92997E+00-7.39619E-06 8.80067E-01-4.37334E-01
 -1         6-1.23113E+00-1.23113E+00-2.87251E+00 2.29249E-07 2.79926E-01-1.62793E-01
 -1         7 8.08780E-01 1.35803E+00-1.48377E+00-2.74579E-01-8.79413E-01-1.62788E-01
 -1         8 9.91852E-01 4.42777E-01-4.71749E+00-2.74585E-01-2.79219E-01-4.37342E-01
 -1         9-2.03646E-02-1.47012E-02-1.00032E+02-1.01068E-11 1.84138E-02-3.31885E-11
 -1        10-2.69783E-03 8.38574E-03-9.99964E+01 2.71029E-03 9.03828E-03 1.88671E-03
 -1        11-2.14637E-03-2.72669E-02-1.00007E+02-2.02671E-02-8.33987E-03-2.67590E-03
 -1        12 1.46529E-02 3.00670E-02-1.00008E+02 6.07225E-12 5.59794E-03-4.60827E-11
 -1        13-2.69783E-03 8.38574E-03-9.99964E+01-2.71029E-03 9.03828E-03-1.88671E-03
 -1        14 2.46544E-02 4.11591E-02-9.99381E+01 6.39250E-12 3.20974E-02-3.51346E-11
 -1        15-9.26021E-03-7.49144E-02-9.99830E+01-1.18823E-12 1.01570E-02-4.80216E-11
 -1        16-2.14637E-03-2.72669E-02-1.00007E+02 2.02671E-02-8.33987E-03 2.67590E-03
 -3
    1PSTEP                        54          11           3          
  100CL  118 3.000000000          16                     0   18           1
 -4  CONTACT     6    1
 -5  COPEN       1    4    1    1
 -5  CSLIP1      1    4    2    2
 -5  CSLIP2      1    4    3    3
 -5  CPRESS      1    4    1    2
 -5  CSHEAR1     1    4    2    3
 -5  CSHEAR2     1    4    3    1
 -1         1 0.00000E+00 0.00000E+00 0.00000E+00 0.00000E+00 0.00000E+00 0.00000E+00
 -1         2 0.00000E+00 0.00000E+00 0.00000E+00 0.00000E+00 0.00000E+00 0.00000E+00
 -1         3 0.00000E+00 0.00000E+00 0.00000E+00 0.00000E+00 0.00000E+00 0.00000E+00
 -1         4 0.00000E+00 0.00000E+00 0.00000E+00 0.00000E+00 0.00000E+00 0.00000E+00
 -1         5 0.00000E+00 0.00000E+00 0.00000E+00 0.00000E+00 0.00000E+00 0.00000E+00
 -1         6 0.00000E+00 0.00000E+00 0.00000E+00 0.00000E+00 0.00000E+00 0.00000E+00
 -1         7 0.00000E+00 0.00000E+00 0.00000E+00 0.00000E+00 0.00000E+00 0.00000E+00
 -1         8 0.00000E+00 0.00000E+00 0.00000E+00 0.00000E+00 0.00000E+00 0.00000E+00
 -1         9-1.00056E-05-4.39751E-13 1.00025E-01 1.00056E+02 2.11449E-11 9.89910E-03
 -1        10-1.00018E-05 1.52150E-05 1.00009E-01 1.00018E+02-1.61664E-06 9.89524E-03
 -1        11 0.00000E+00 0.00000E+00 0.00000E+00 0.00000E+00 0.00000E+00 0.00000E+00
 -1        12 0.00000E+00 0.00000E+00 0.00000E+00 0.00000E+00 0.00000E+00 0.00000E+00
 -1        13-1.00018E-05-1.52150E-05 1.00009E-01 1.00018E+02 1.61662E-06 9.89524E-03
 -1        14-9.99218E-06-4.32221E-13 9.99940E-02 9.99218E+01 1.06806E-11 9.88564E-03
 -1        15 0.00000E+00 0.00000E+00 0.00000E+00 0.00000E+00 0.00000E+00 0.00000E+00
 -1        16 0.00000E+00 0.00000E+00 0.00000E+00 0.00000E+00 0.00000E+00 0.00000E+00
 -3
    1PSTEP                        55           1           4          
  100CL  119 3.010000000          16                     0   19           1
 -4  DISP        4    1
 -5  D1          1    2    1    0
 -5  D2          1    2    2    0
 -5  D3          1    2    3    0
 -5  ALL         1    2    0    0    1ALL
 -1         1 0.00000E+00 0.00000E+00 0.00000E+00
 -1         2 0.00000E+00 0.00000E+00 0.00000E+00
 -1         3 2.01557E-06 3.46577E-06-1.01619E-05
 -1         4 5.41508E-06 1.08969E-05-2.45157E-05
 -1         5 0.00000E+00 0.00000E+00 0.00000E+00
 -1         6 0.00000E+00 0.00000E+00 0.00000E+00
 -1         7-2.01557E-06 3.46577E-06-1.01619E-05
 -1         8-5.41508E-06 1.08969E-05-2.45157E-05
 -1         9-1.18196E-13 1.00037E-01-3.08112E-05
 -1        10 2.02135E-05 1.00017E-01-2.87761E-05
 -1        11 2.02232E-05 1.00020E-01-1.24112E-04
 -1        12 0.00000E+00 1.00040E-01-1.26169E-04
 -1        13-2.02135E-05 1.00017E-01-2.87761E-05
 -1        14-1.18188E-13 9.99970E-02-2.67339E-05
 -1        15 0.00000E+00 1.00000E-01-1.22031E-04
 -1        16-2.02232E-05 1.00020E-01-1.24112E-04
 -3
    1PSTEP                        56           1           4          
  100CL  119 3.010000000          16                     0   19           1
 -4  STRESS      6    1
 -5  SXX         1    4    1    1
 -5  SYY         1    4    2    2
 -5  SZZ         1    4    3    3
 -5  SXY         1    4    1    2
 -5  SYZ         1    4    2    3
 -5  SZX         1    4    3    1
 -1         1-2.97016E+00-2.97015E+00-6.92997E+00 7.39619E-06 8.80067E-01 4.37334E-01
 -1         2-1.23113E+00-1.23113E+00-2.87251E+00-2.29249E-07 2.79926E-01 1.62793E-01
 -1         3 8.08780E-01 1.35803E+00-1.48377E+00 2.74579E-01-8.79413E-01 1.62788E-01
 -1         4 9.91852E-01 4.42777E-01-4.71749E+00 2.74585E-01-2.79219E-01 4.37342E-01
 -1         5-2.97016E+00-2.97015E+00-6.92997E+00-7.39619E-06 8.80067E-01-4.37334E-01
 -1         6-1.23113E+00-1.23113E+00-2.87251E+00 2.29249E-07 2.79926E-01-1.62793E-01
 -1         7 8.08780E-01 1.35803E+00-1.48377E+00-2.74579E-01-8.79413E-01-1.62788E-01
 -1         8 9.91852E-01 4.42777E-01-4.71749E+00-2.74585E-01-2.79219E-01-4.37342E-01
 -1         9-2.03646E-02-1.47012E-02-1.00032E+02-6.67486E-12 1.84138E-02-3.14505E-11
 -1        10-2.69783E-03 8.38574E-03-9.99964E+01 2.71029E-03 9.03828E-03 1.88671E-03
 -1        11-2.14637E-03-2.72669E-02-1.00007E+02-2.02671E-02-8.33987E-03-2.67590E-03
 -1        12 1.46529E-02 3.00670E-02-1.00008E+02 1.43014E-11 5.59794E-03-4.32553E-11
 -1        13-2.69783E-03 8.38574E-03-9.99964E+01-2.71029E-03 9.03828E-03-1.88671E-03
 -1        14 2.46544E-02 4.11591E-02-9.99381E+01 1.61399E-11 3.20974E-02-3.45816E-11
 -1        15-9.26021E-03-7.49144E-02-9.99830E+01-9.13210E-12 1.01570E-02-4.63676E-11
 -1        16-2.14637E-03-2.72669E-02-1.00007E+02 2.02671E-02-8.33987E-03 2.67590E-03
 -3
    1PSTEP                        57           1           4          
  100CL  119 3.010000000          16                     0   19           1
 -4  CONTACT     6    1
 -5  COPEN       1    4    1    1
 -5  CSLIP1      1    4    2    2
 -5  CSLIP2      1    4    3    3
 -5  CPRESS      1    4    1    2
 -5  CSHEAR1     1    4    2    3
 -5  CSHEAR2     1    4    3    1
 -1         1 0.00000E+00 0.00000E+00 0.00000E+00 0.00000E+00 0.00000E+00 0.00000E+00
 -1         2 0.00000E+00 0.00000E+00 0.00000E+00 0.00000E+00 0.00000E+00 0.00000E+00
 -1         3 0.00000E+00 0.00000E+00 0.00000E+00 0.00000E+00 0.00000E+00 0.00000E+00
 -1         4 0.00000E+00 0.00000E+00 0.00000E+00 0.00000E+00 0.00000E+00 0.00000E+00
 -1         5 0.00000E+00 0.00000E+00 0.00000E+00 0.00000E+00 0.00000E+00 0.00000E+00
 -1         6 0.00000E+00 0.00000E+00 0.00000E+00 0.00000E+00 0.00000E+00 0.00000E+00
 -1         7 0.00000E+00 0.00000E+00 0.00000E+00 0.00000E+00 0.00000E+00 0.00000E+00
 -1         8 0.00000E+00 0.00000E+00 0.00000E+00 0.00000E+00 0.00000E+00 0.00000E+00
 -1         9-1.00056E-05-4.39655E-13 1.00025E-01 1.00056E+02 2.12406E-11 9.89910E-03
 -1        10-1.00018E-05 1.52150E-05 1.00009E-01 1.00018E+02-1.61664E-06 9.89524E-03
 -1        11 0.00000E+00 0.00000E+00 0.00000E+00 0.00000E+00 0.00000E+00 0.00000E+00
 -1        12 0.00000E+00 0.00000E+00 0.00000E+00 0.00000E+00 0.00000E+00 0.00000E+00
 -1        13-1.00018E-05-1.52150E-05 1.00009E-01 1.00018E+02 1.61662E-06 9.89524E-03
 -1        14-9.99218E-06-4.32122E-13 9.99940E-02 9.99218E+01 1.07793E-11 9.88564E-03
 -1        15 0.00000E+00 0.00000E+00 0.00000E+00 0.00000E+00 0.00000E+00 0.00000E+00
 -1        16 0.00000E+00 0.00000E+00 0.00000E+00 0.00000E+00 0.00000E+00 0.00000E+00
 -3
    1PSTEP                        58           2           4          
  100CL  120 3.020000000          16                     0   20           1
 -4  DISP        4    1
 -5  D1          1    2    1    0
 -5  D2          1    2    2    0
 -5  D3          1    2    3    0
 -5  ALL         1    2    0    0    1ALL
 -1         1 0.00000E+00 0.00000E+00 0.00000E+00
 -1         2 0.00000E+00 0.00000E+00 0.00000E+00
 -1         3 2.01557E-06 3.46577E-06-1.01619E-05
 -1         4 5.41508E-06 1.08969E-05-2.45157E-05
 -1         5 0.00000E+00 0.00000E+00 0.00000E+00
 -1         6 0.00000E+00 0.00000E+00 0.00000E+00
 -1         7-2.01557E-06 3.46577E-06-1.01619E-05
 -1         8-5.41508E-06 1.08969E-05-2.45157E-05
 -1         9-1.18258E-13 1.00037E-01-3.08112E-05
 -1        10 2.02135E-05 1.00017E-01-2.87761E-05
 -1        11 2.02232E-05 1.00020E-01-1.24112E-04
 -1        12 0.00000E+00 1.00040E-01-1.26169E-04
 -1        13-2.02135E-05 1.00017E-01-2.87761E-05
 -1        14-1.18237E-13 9.99970E-02-2.67339E-05
 -1        15 0.00000E+00 1.00000E-01-1.22031E-04
 -1        16-2.02232E-05 1.00020E-01-1.24112E-04
 -3
    1PSTEP                        59           2           4          
  100CL  120 3.020000000          16                     0   20           1
 -4  STRESS      6    1
 -5  SXX         1    4    1    1
 -5  SYY         1    4    2    2
 -5  SZZ         1    4    3    3
 -5  SXY         1    4    1    2
 -5  SYZ         1    4    2    3
 -5  SZX         1    4    3    1
 -1         1-2.97016E+00-2.97015E+00-6.92997E+00 7.39619E-06 8.80067E-01 4.37334E-01
 -1         2-1.23113E+00-1.23113E+00-2.87251E+00-2.29249E-07 2.79926E-01 1.62793E-01
 -1         3 8.08780E-01 1.35803E+00-1.48377E+00 2.74579E-01-8.79413E-01 1.62788E-01
 -1         4 9.91852E-01 4.42777E-01-4.71749E+00 2.74585E-01-2.79219E-01 4.37342E-01
 -1         5-2.97016E+00-2.97015E+00-6.92997E+00-7.39619E-06 8.80067E-01-4.37334E-01
 -1         6-1.23113E+00-1.23113E+00-2.87251E+00 2.29249E-07 2.79926E-01-1.62793E-01
 -1         7 8.08780E-01 1.35803E+00-1.48377E+00-2.74579E-01-8.79413E-01-1.62788E-01
 -1         8 9.91852E-01 4.42777E-01-4.71749E+00-2.74585E-01-2.79219E-01-4.37342E-01
 -1         9-2.03646E-02-1.47012E-02-1.00032E+02-1.14052E-11 1.84138E-02-3.00549E-11
 -1        10-2.69783E-03 8.38574E-03-9.99964E+01 2.71029E-03 9.03828E-03 1.88671E-03
 -1        11-2.14637E-03-2.72669E-02-1.00007E+02-2.02671E-02-8.33987E-03-2.67590E-03
 -1        12 1.46529E-02 3.00670E-02-1.00008E+02 2.28957E-11 5.59794E-03-4.13697E-11
 -1        13-2.69783E-03 8.38574E-03-9.99964E+01-2.71029E-03 9.03828E-03-1.88671E-03
 -1        14 2.46544E-02 4.11591E-02-9.99381E+01 7.66040E-12 3.20974E-02-3.87009E-11
 -1        15-9.26021E-03-7.49144E-02-9.99830E+01 5.05274E-12 1.01570E-02-5.00001E-11
 -1        16-2.14637E-03-2.72669E-02-1.00007E+02 2.02671E-02-8.33987E-03 2.67590E-03
 -3
    1PSTEP                        60           2           4          
  100CL  120 3.020000000          16                     0   20           1
 -4  CONTACT     6    1
 -5  COPEN       1    4    1    1
 -5  CSLIP1      1    4    2    2
 -5  CSLIP2      1    4    3    3
 -5  CPRESS      1    4    1    2
 -5  CSHEAR1     1    4    2    3
 -5  CSHEAR2     1    4    3    1
 -1         1 0.00000E+00 0.00000E+00 0.00000E+00 0.00000E+00 0.00000E+00 0.00000E+00
 -1         2 0.00000E+00 0.00000E+00 0.00000E+00 0.00000E+00 0.00000E+00 0.00000E+00
 -1         3 0.00000E+00 0.00000E+00 0.00000E+00 0.00000E+00 0.00000E+00 0.00000E+00
 -1         4 0.00000E+00 0.00000E+00 0.00000E+00 0.00000E+00 0.00000E+00 0.00000E+00
 -1         5 0.00000E+00 0.00000E+00 0.00000E+00 0.00000E+00 0.00000E+00 0.00000E+00
 -1         6 0.00000E+00 0.00000E+00 0.00000E+00 0.00000E+00 0.00000E+00 0.00000E+00
 -1         7 0.00000E+00 0.00000E+00 0.00000E+00 0.00000E+00 0.00000E+00 0.00000E+00
 -1         8 0.00000E+00 0.00000E+00 0.00000E+00 0.00000E+00 0.00000E+00 0.00000E+00
 -1         9-1.00056E-05-4.39718E-13 1.00025E-01 1.00056E+02 2.11781E-11 9.89910E-03
 -1        10-1.00018E-05 1.52150E-05 1.00009E-01 1.00018E+02-1.61664E-06 9.89524E-03
 -1        11 0.00000E+00 0.00000E+00 0.00000E+00 0.00000E+00 0.00000E+00 0.00000E+00
 -1        12 0.00000E+00 0.00000E+00 0.00000E+00 0.00000E+00 0.00000E+00 0.00000E+00
 -1        13-1.00018E-05-1.52150E-05 1.00009E-01 1.00018E+02 1.61662E-06 9.89524E-03
 -1        14-9.99218E-06-4.32171E-13 9.99940E-02 9.99218E+01 1.07305E-11 9.88564E-03
 -1        15 0.00000E+00 0.00000E+00 0.00000E+00 0.00000E+00 0.00000E+00 0.00000E+00
 -1        16 0.00000E+00 0.00000E+00 0.00000E+00 0.00000E+00 0.00000E+00 0.00000E+00
 -3
    1PSTEP                        61           3           4          
  100CL  121 3.035000000          16                     0   21           1
 -4  DISP        4    1
 -5  D1          1    2    1    0
 -5  D2          1    2    2    0
 -5  D3          1    2    3    0
 -5  ALL         1    2    0    0    1ALL
 -1         1 0.00000E+00 0.00000E+00 0.00000E+00
 -1         2 0.00000E+00 0.00000E+00 0.00000E+00
 -1         3 2.01557E-06 3.46577E-06-1.01619E-05
 -1         4 5.41508E-06 1.08969E-05-2.45157E-05
 -1         5 0.00000E+00 0.00000E+00 0.00000E+00
 -1         6 0.00000E+00 0.00000E+00 0.00000E+00
 -1         7-2.01557E-06 3.46577E-06-1.01619E-05
 -1         8-5.41508E-06 1.08969E-05-2.45157E-05
 -1         9-1.18263E-13 1.00037E-01-3.08112E-05
 -1        10 2.02135E-05 1.00017E-01-2.87761E-05
 -1        11 2.02232E-05 1.00020E-01-1.24112E-04
 -1        12 0.00000E+00 1.00040E-01-1.26169E-04
 -1        13-2.02135E-05 1.00017E-01-2.87761E-05
 -1        14-1.18254E-13 9.99970E-02-2.67339E-05
 -1        15 0.00000E+00 1.00000E-01-1.22031E-04
 -1        16-2.02232E-05 1.00020E-01-1.24112E-04
 -3
    1PSTEP                        62           3           4          
  100CL  121 3.035000000          16                     0   21           1
 -4  STRESS      6    1
 -5  SXX         1    4    1    1
 -5  SYY         1    4    2    2
 -5  SZZ         1    4    3    3
 -5  SXY         1    4    1    2
 -5  SYZ         1    4    2    3
 -5  SZX         1    4    3    1
 -1         1-2.97016E+00-2.97015E+00-6.92997E+00 7.39619E-06 8.80067E-01 4.37334E-01
 -1         2-1.23113E+00-1.23113E+00-2.87251E+00-2.29249E-07 2.79926E-01 1.62793E-01
 -1         3 8.08780E-01 1.35803E+00-1.48377E+00 2.74579E-01-8.79413E-01 1.62788E-01
 -1         4 9.91852E-01 4.42777E-01-4.71749E+00 2.74585E-01-2.79219E-01 4.37342E-01
 -1         5-2.97016E+00-2.97015E+00-6.92997E+00-7.39619E-06 8.80067E-01-4.37334E-01
 -1         6-1.23113E+00-1.23113E+00-2.87251E+00 2.29249E-07 2.79926E-01-1.62793E-01
 -1         7 8.08780E-01 1.35803E+00-1.48377E+00-2.74579E-01-8.79413E-01-1.62788E-01
 -1         8 9.91852E-01 4.42777E-01-4.71749E+00-2.74585E-01-2.79219E-01-4.37342E-01
 -1         9-2.03646E-02-1.47012E-02-1.00032E+02-4.39863E-12 1.84138E-02-3.23116E-11
 -1        10-2.69783E-03 8.38574E-03-9.99964E+01 2.71029E-03 9.03828E-03 1.88671E-03
 -1        11-2.14637E-03-2.72669E-02-1.00007E+02-2.02671E-02-8.33987E-03-2.67590E-03
 -1        12 1.46529E-02 3.00670E-02-1.00008E+02 4.43165E-12 5.59794E-03-4.52300E-11
 -1        13-2.69783E-03 8.38574E-03-9.99964E+01-2.71029E-03 9.03828E-03-1.88671E-03
 -1        14 2.46544E-02 4.11591E-02-9.99381E+01 1.65403E-12 3.20974E-02-3.57351E-11
 -1        15-9.26021E-03-7.49144E-02-9.99830E+01-3.67693E-13 1.01570E-02-4.86463E-11
 -1        16-2.14637E-03-2.72669E-02-1.00007E+02 2.02671E-02-8.33987E-03 2.67590E-03
 -3
    1PSTEP                        63           3           4          
  100CL  121 3.035000000          16                     0   21           1
 -4  CONTACT     6    1
 -5  COPEN       1    4    1    1
 -5  CSLIP1      1    4    2    2
 -5  CSLIP2      1    4    3    3
 -5  CPRESS      1    4    1    2
 -5  CSHEAR1     1    4    2    3
 -5  CSHEAR2     1    4    3    1
 -1         1 0.00000E+00 0.00000E+00 0.00000E+00 0.00000E+00 0.00000E+00 0.00000E+00
 -1         2 0.00000E+00 0.00000E+00 0.00000E+00 0.00000E+00 0.00000E+00 0.00000E+00
 -1         3 0.00000E+00 0.00000E+00 0.00000E+00 0.00000E+00 0.00000E+00 0.00000E+00
 -1         4 0.00000E+00 0.00000E+00 0.00000E+00 0.00000E+00 0.00000E+00 0.00000E+00
 -1         5 0.00000E+00 0.00000E+00 0.00000E+00 0.00000E+00 0.00000E+00 0.00000E+00
 -1         6 0.00000E+00 0.00000E+00 0.00000E+00 0.00000E+00 0.00000E+00 0.00000E+00
 -1         7 0.00000E+00 0.00000E+00 0.00000E+00 0.00000E+00 0.00000E+00 0.00000E+00
 -1         8 0.00000E+00 0.00000E+00 0.00000E+00 0.00000E+00 0.00000E+00 0.00000E+00
 -1         9-1.00056E-05-4.39722E-13 1.00025E-01 1.00056E+02 2.11739E-11 9.89910E-03
 -1        10-1.00018E-05 1.52150E-05 1.00009E-01 1.00018E+02-1.61664E-06 9.89524E-03
 -1        11 0.00000E+00 0.00000E+00 0.00000E+00 0.00000E+00 0.00000E+00 0.00000E+00
 -1        12 0.00000E+00 0.00000E+00 0.00000E+00 0.00000E+00 0.00000E+00 0.00000E+00
 -1        13-1.00018E-05-1.52150E-05 1.00009E-01 1.00018E+02 1.61662E-06 9.89524E-03
 -1        14-9.99218E-06-4.32188E-13 9.99940E-02 9.99218E+01 1.07133E-11 9.88564E-03
 -1        15 0.00000E+00 0.00000E+00 0.00000E+00 0.00000E+00 0.00000E+00 0.00000E+00
 -1        16 0.00000E+00 0.00000E+00 0.00000E+00 0.00000E+00 0.00000E+00 0.00000E+00
 -3
    1PSTEP                        64           4           4          
  100CL  122 3.057500000          16                     0   22           1
 -4  DISP        4    1
 -5  D1          1    2    1    0
 -5  D2          1    2    2    0
 -5  D3          1    2    3    0
 -5  ALL         1    2    0    0    1ALL
 -1         1 0.00000E+00 0.00000E+00 0.00000E+00
 -1         2 0.00000E+00 0.00000E+00 0.00000E+00
 -1         3 2.01557E-06 3.46577E-06-1.01619E-05
 -1         4 5.41508E-06 1.08969E-05-2.45157E-05
 -1         5 0.00000E+00 0.00000E+00 0.00000E+00
 -1         6 0.00000E+00 0.00000E+00 0.00000E+00
 -1         7-2.01557E-06 3.46577E-06-1.01619E-05
 -1         8-5.41508E-06 1.08969E-05-2.45157E-05
 -1         9-1.18220E-13 1.00037E-01-3.08112E-05
 -1        10 2.02135E-05 1.00017E-01-2.87761E-05
 -1        11 2.02232E-05 1.00020E-01-1.24112E-04
 -1        12 0.00000E+00 1.00040E-01-1.26169E-04
 -1        13-2.02135E-05 1.00017E-01-2.87761E-05
 -1        14-1.18209E-13 9.99970E-02-2.67339E-05
 -1        15 0.00000E+00 1.00000E-01-1.22031E-04
 -1        16-2.02232E-05 1.00020E-01-1.24112E-04
 -3
    1PSTEP                        65           4           4          
  100CL  122 3.057500000          16                     0   22           1
 -4  STRESS      6    1
 -5  SXX         1    4    1    1
 -5  SYY         1    4    2    2
 -5  SZZ         1    4    3    3
 -5  SXY         1    4    1    2
 -5  SYZ         1    4    2    3
 -5  SZX         1    4    3    1
 -1         1-2.97016E+00-2.97015E+00-6.92997E+00 7.39619E-06 8.80067E-01 4.37334E-01
 -1         2-1.23113E+00-1.23113E+00-2.87251E+00-2.29249E-07 2.79926E-01 1.62793E-01
 -1         3 8.08780E-01 1.35803E+00-1.48377E+00 2.74579E-01-8.79413E-01 1.62788E-01
 -1         4 9.91852E-01 4.42777E-01-4.71749E+00 2.74585E-01-2.79219E-01 4.37342E-01
 -1         5-2.97016E+00-2.97015E+00-6.92997E+00-7.39619E-06 8.80067E-01-4.37334E-01
 -1         6-1.23113E+00-1.23113E+00-2.87251E+00 2.29249E-07 2.79926E-01-1.62793E-01
 -1         7 8.08780E-01 1.35803E+00-1.48377E+00-2.74579E-01-8.79413E-01-1.62788E-01
 -1         8 9.91852E-01 4.42777E-01-4.71749E+00-2.74585E-01-2.79219E-01-4.37342E-01
 -1         9-2.03646E-02-1.47012E-02-1.00032E+02-7.47944E-12 1.84138E-02-3.23873E-11
 -1        10-2.69783E-03 8.38574E-03-9.99964E+01 2.71029E-03 9.03828E-03 1.88671E-03
 -1        11-2.14637E-03-2.72669E-02-1.00007E+02-2.02671E-02-8.33987E-03-2.67590E-03
 -1        12 1.46529E-02 3.00670E-02-1.00008E+02 3.51877E-12 5.59794E-03-4.43718E-11
 -1        13-2.69783E-03 8.38574E-03-9.99964E+01-2.71029E-03 9.03828E-03-1.88671E-03
 -1        14 2.46544E-02 4.11591E-02-9.99381E+01 5.79439E-12 3.20974E-02-3.68507E-11
 -1        15-9.26021E-03-7.49144E-02-9.99830E+01 6.97153E-12 1.01570E-02-4.88493E-11
 -1        16-2.14637E-03-2.72669E-02-1.00007E+02 2.02671E-02-8.33987E-03 2.67590E-03
 -3
    1PSTEP                        66           4           4          
  100CL  122 3.057500000          16                     0   22           1
 -4  CONTACT     6    1
 -5  COPEN       1    4    1    1
 -5  CSLIP1      1    4    2    2
 -5  CSLIP2      1    4    3    3
 -5  CPRESS      1    4    1    2
 -5  CSHEAR1     1    4    2    3
 -5  CSHEAR2     1    4    3    1
 -1         1 0.00000E+00 0.00000E+00 0.00000E+00 0.00000E+00 0.00000E+00 0.00000E+00
 -1         2 0.00000E+00 0.00000E+00 0.00000E+00 0.00000E+00 0.00000E+00 0.00000E+00
 -1         3 0.00000E+00 0.00000E+00 0.00000E+00 0.00000E+00 0.00000E+00 0.00000E+00
 -1         4 0.00000E+00 0.00000E+00 0.00000E+00 0.00000E+00 0.00000E+00 0.00000E+00
 -1         5 0.00000E+00 0.00000E+00 0.00000E+00 0.00000E+00 0.00000E+00 0.00000E+00
 -1         6 0.00000E+00 0.00000E+00 0.00000E+00 0.00000E+00 0.00000E+00 0.00000E+00
 -1         7 0.00000E+00 0.00000E+00 0.00000E+00 0.00000E+00 0.00000E+00 0.00000E+00
 -1         8 0.00000E+00 0.00000E+00 0.00000E+00 0.00000E+00 0.00000E+00 0.00000E+00
 -1         9-1.00056E-05-4.39680E-13 1.00025E-01 1.00056E+02 2.12161E-11 9.89910E-03
 -1        10-1.00018E-05 1.52150E-05 1.00009E-01 1.00018E+02-1.61664E-06 9.89524E-03
 -1        11 0.00000E+00 0.00000E+00 0.00000E+00 0.00000E+00 0.00000E+00 0.00000E+00
 -1        12 0.00000E+00 0.00000E+00 0.00000E+00 0.00000E+00 0.00000E+00 0.00000E+00
 -1        13-1.00018E-05-1.52150E-05 1.00009E-01 1.00018E+02 1.61662E-06 9.89524E-03
 -1        14-9.99218E-06-4.32143E-13 9.99940E-02 9.99218E+01 1.07581E-11 9.88564E-03
 -1        15 0.00000E+00 0.00000E+00 0.00000E+00 0.00000E+00 0.00000E+00 0.00000E+00
 -1        16 0.00000E+00 0.00000E+00 0.00000E+00 0.00000E+00 0.00000E+00 0.00000E+00
 -3
    1PSTEP                        67           5           4          
  100CL  123 3.091250000          16                     0   23           1
 -4  DISP        4    1
 -5  D1          1    2    1    0
 -5  D2          1    2    2    0
 -5  D3          1    2    3    0
 -5  ALL         1    2    0    0    1ALL
 -1         1 0.00000E+00 0.00000E+00 0.00000E+00
 -1         2 0.00000E+00 0.00000E+00 0.00000E+00
 -1         3 2.01557E-06 3.46577E-06-1.01619E-05
 -1         4 5.41508E-06 1.08969E-05-2.45157E-05
 -1         5 0.00000E+00 0.00000E+00 0.00000E+00
 -1         6 0.00000E+00 0.00000E+00 0.00000E+00
 -1         7-2.01557E-06 3.46577E-06-1.01619E-05
 -1         8-5.41508E-06 1.08969E-05-2.45157E-05
 -1         9-1.18220E-13 1.00037E-01-3.08112E-05
 -1        10 2.02135E-05 1.00017E-01-2.87761E-05
 -1        11 2.02232E-05 1.00020E-01-1.24112E-04
 -1        12 0.00000E+00 1.00040E-01-1.26169E-04
 -1        13-2.02135E-05 1.00017E-01-2.87761E-05
 -1        14-1.18209E-13 9.99970E-02-2.67339E-05
 -1        15 0.00000E+00 1.00000E-01-1.22031E-04
 -1        16-2.02232E-05 1.00020E-01-1.24112E-04
 -3
    1PSTEP                        68           5           4          
  100CL  123 3.091250000          16                     0   23           1
 -4  STRESS      6    1
 -5  SXX         1    4    1    1
 -5  SYY         1    4    2    2
 -5  SZZ         1    4    3    3
 -5  SXY         1    4    1    2
 -5  SYZ         1    4    2    3
 -5  SZX         1    4    3    1
 -1         1-2.97016E+00-2.97015E+00-6.92997E+00 7.39619E-06 8.80067E-01 4.37334E-01
 -1         2-1.23113E+00-1.23113E+00-2.87251E+00-2.29249E-07 2.79926E-01 1.62793E-01
 -1         3 8.08780E-01 1.35803E+00-1.48377E+00 2.74579E-01-8.79413E-01 1.62788E-01
 -1         4 9.91852E-01 4.42777E-01-4.71749E+00 2.74585E-01-2.79219E-01 4.37342E-01
 -1         5-2.97016E+00-2.97015E+00-6.92997E+00-7.39619E-06 8.80067E-01-4.37334E-01
 -1         6-1.23113E+00-1.23113E+00-2.87251E+00 2.29249E-07 2.79926E-01-1.62793E-01
 -1         7 8.08780E-01 1.35803E+00-1.48377E+00-2.74579E-01-8.79413E-01-1.62788E-01
 -1         8 9.91852E-01 4.42777E-01-4.71749E+00-2.74585E-01-2.79219E-01-4.37342E-01
 -1         9-2.03646E-02-1.47012E-02-1.00032E+02-1.99544E-11 1.84138E-02-3.13962E-11
 -1        10-2.69783E-03 8.38574E-03-9.99964E+01 2.71029E-03 9.03828E-03 1.88671E-03
 -1        11-2.14637E-03-2.72669E-02-1.00007E+02-2.02671E-02-8.33987E-03-2.67590E-03
 -1        12 1.46529E-02 3.00670E-02-1.00008E+02 8.78388E-12 5.59794E-03-4.29594E-11
 -1        13-2.69783E-03 8.38574E-03-9.99964E+01-2.71029E-03 9.03828E-03-1.88671E-03
 -1        14 2.46544E-02 4.11591E-02-9.99381E+01 1.18022E-12 3.20974E-02-3.61113E-11
 -1        15-9.26021E-03-7.49144E-02-9.99830E+01 5.03810E-13 1.01570E-02-4.76671E-11
 -1        16-2.14637E-03-2.72669E-02-1.00007E+02 2.02671E-02-8.33987E-03 2.67590E-03
 -3
    1PSTEP                        69           5           4          
  100CL  123 3.091250000          16                     0   23           1
 -4  CONTACT     6    1
 -5  COPEN       1    4    1    1
 -5  CSLIP1      1    4    2    2
 -5  CSLIP2      1    4    3    3
 -5  CPRESS      1    4    1    2
 -5  CSHEAR1     1    4    2    3
 -5  CSHEAR2     1    4    3    1
 -1         1 0.00000E+00 0.00000E+00 0.00000E+00 0.00000E+00 0.00000E+00 0.00000E+00
 -1         2 0.00000E+00 0.00000E+00 0.00000E+00 0.00000E+00 0.00000E+00 0.00000E+00
 -1         3 0.00000E+00 0.00000E+00 0.00000E+00 0.00000E+00 0.00000E+00 0.00000E+00
 -1         4 0.00000E+00 0.00000E+00 0.00000E+00 0.00000E+00 0.00000E+00 0.00000E+00
 -1         5 0.00000E+00 0.00000E+00 0.00000E+00 0.00000E+00 0.00000E+00 0.00000E+00
 -1         6 0.00000E+00 0.00000E+00 0.00000E+00 0.00000E+00 0.00000E+00 0.00000E+00
 -1         7 0.00000E+00 0.00000E+00 0.00000E+00 0.00000E+00 0.00000E+00 0.00000E+00
 -1         8 0.00000E+00 0.00000E+00 0.00000E+00 0.00000E+00 0.00000E+00 0.00000E+00
 -1         9-1.00056E-05-4.39680E-13 1.00025E-01 1.00056E+02 2.12160E-11 9.89910E-03
 -1        10-1.00018E-05 1.52150E-05 1.00009E-01 1.00018E+02-1.61664E-06 9.89524E-03
 -1        11 0.00000E+00 0.00000E+00 0.00000E+00 0.00000E+00 0.00000E+00 0.00000E+00
 -1        12 0.00000E+00 0.00000E+00 0.00000E+00 0.00000E+00 0.00000E+00 0.00000E+00
 -1        13-1.00018E-05-1.52150E-05 1.00009E-01 1.00018E+02 1.61662E-06 9.89524E-03
 -1        14-9.99218E-06-4.32143E-13 9.99940E-02 9.99218E+01 1.07586E-11 9.88564E-03
 -1        15 0.00000E+00 0.00000E+00 0.00000E+00 0.00000E+00 0.00000E+00 0.00000E+00
 -1        16 0.00000E+00 0.00000E+00 0.00000E+00 0.00000E+00 0.00000E+00 0.00000E+00
 -3
    1PSTEP                        70           6           4          
  100CL  124 3.141875000          16                     0   24           1
 -4  DISP        4    1
 -5  D1          1    2    1    0
 -5  D2          1    2    2    0
 -5  D3          1    2    3    0
 -5  ALL         1    2    0    0    1ALL
 -1         1 0.00000E+00 0.00000E+00 0.00000E+00
 -1         2 0.00000E+00 0.00000E+00 0.00000E+00
 -1         3 2.01557E-06 3.46577E-06-1.01619E-05
 -1         4 5.41508E-06 1.08969E-05-2.45157E-05
 -1         5 0.00000E+00 0.00000E+00 0.00000E+00
 -1         6 0.00000E+00 0.00000E+00 0.00000E+00
 -1         7-2.01557E-06 3.46577E-06-1.01619E-05
 -1         8-5.41508E-06 1.08969E-05-2.45157E-05
 -1         9-1.18270E-13 1.00037E-01-3.08112E-05
 -1        10 2.02135E-05 1.00017E-01-2.87761E-05
 -1        11 2.02232E-05 1.00020E-01-1.24112E-04
 -1        12 0.00000E+00 1.00040E-01-1.26169E-04
 -1        13-2.02135E-05 1.00017E-01-2.87761E-05
 -1        14-1.18264E-13 9.99970E-02-2.67339E-05
 -1        15 0.00000E+00 1.00000E-01-1.22031E-04
 -1        16-2.02232E-05 1.00020E-01-1.24112E-04
 -3
    1PSTEP                        71           6           4          
  100CL  124 3.141875000          16                     0   24           1
 -4  STRESS      6    1
 -5  SXX         1    4    1    1
 -5  SYY         1    4    2    2
 -5  SZZ         1    4    3    3
 -5  SXY         1    4    1    2
 -5  SYZ         1    4    2    3
 -5  SZX         1    4    3    1
 -1         1-2.97016E+00-2.97015E+00-6.92997E+00 7.39619E-06 8.80067E-01 4.37334E-01
 -1         2-1.23113E+00-1.23113E+00-2.87251E+00-2.29249E-07 2.79926E-01 1.62793E-01
 -1         3 8.08780E-01 1.35803E+00-1.48377E+00 2.74579E-01-8.79413E-01 1.62788E-01
 -1         4 9.91852E-01 4.42777E-01-4.71749E+00 2.74585E-01-2.79219E-01 4.37342E-01
 -1         5-2.97016E+00-2.97015E+00-6.92997E+00-7.39619E-06 8.80067E-01-4.37334E-01
 -1         6-1.23113E+00-1.23113E+00-2.87251E+00 2.29249E-07 2.79926E-01-1.62793E-01
 -1         7 8.08780E-01 1.35803E+00-1.48377E+00-2.74579E-01-8.79413E-01-1.62788E-01
 -1         8 9.91852E-01 4.42777E-01-4.71749E+00-2.74585E-01-2.79219E-01-4.37342E-01
 -1         9-2.03646E-02-1.47012E-02-1.00032E+02-1.47421E-11 1.84138E-02-3.16975E-11
 -1        10-2.69783E-03 8.38574E-03-9.99964E+01 2.71029E-03 9.03828E-03 1.88671E-03
 -1        11-2.14637E-03-2.72669E-02-1.00007E+02-2.02671E-02-8.33987E-03-2.67590E-03
 -1        12 1.46529E-02 3.00670E-02-1.00008E+02 1.40407E-11 5.59794E-03-4.39134E-11
 -1        13-2.69783E-03 8.38574E-03-9.99964E+01-2.71029E-03 9.03828E-03-1.88671E-03
 -1        14 2.46544E-02 4.11591E-02-9.99381E+01 7.17562E-12 3.20974E-02-3.40385E-11
 -1        15-9.26021E-03-7.49144E-02-9.99830E+01 3.09966E-12 1.01570E-02-4.62536E-11
 -1        16-2.14637E-03-2.72669E-02-1.00007E+02 2.02671E-02-8.33987E-03 2.67590E-03
 -3
    1PSTEP                        72           6           4          
  100CL  124 3.141875000          16                     0   24           1
 -4  CONTACT     6    1
 -5  COPEN       1    4    1    1
 -5  CSLIP1      1    4    2    2
 -5  CSLIP2      1    4    3    3
 -5  CPRESS      1    4    1    2
 -5  CSHEAR1     1    4    2    3
 -5  CSHEAR2     1    4    3    1
 -1         1 0.00000E+00 0.00000E+00 0.00000E+00 0.00000E+00 0.00000E+00 0.00000E+00
 -1         2 0.00000E+00 0.00000E+00 0.00000E+00 0.00000E+00 0.00000E+00 0.00000E+00
 -1         3 0.00000E+00 0.00000E+00 0.00000E+00 0.00000E+00 0.00000E+00 0.00000E+00
 -1         4 0.00000E+00 0.00000E+00 0.00000E+00 0.00000E+00 0.00000E+00 0.00000E+00
 -1         5 0.00000E+00 0.00000E+00 0.00000E+00 0.00000E+00 0.00000E+00 0.00000E+00
 -1         6 0.00000E+00 0.00000E+00 0.00000E+00 0.00000E+00 0.00000E+00 0.00000E+00
 -1         7 0.00000E+00 0.00000E+00 0.00000E+00 0.00000E+00 0.00000E+00 0.00000E+00
 -1         8 0.00000E+00 0.00000E+00 0.00000E+00 0.00000E+00 0.00000E+00 0.00000E+00
 -1         9-1.00056E-05-4.39729E-13 1.00025E-01 1.00056E+02 2.11664E-11 9.89910E-03
 -1        10-1.00018E-05 1.52150E-05 1.00009E-01 1.00018E+02-1.61664E-06 9.89524E-03
 -1        11 0.00000E+00 0.00000E+00 0.00000E+00 0.00000E+00 0.00000E+00 0.00000E+00
 -1        12 0.00000E+00 0.00000E+00 0.00000E+00 0.00000E+00 0.00000E+00 0.00000E+00
 -1        13-1.00018E-05-1.52150E-05 1.00009E-01 1.00018E+02 1.61662E-06 9.89524E-03
 -1        14-9.99218E-06-4.32198E-13 9.99940E-02 9.99218E+01 1.07031E-11 9.88564E-03
 -1        15 0.00000E+00 0.00000E+00 0.00000E+00 0.00000E+00 0.00000E+00 0.00000E+00
 -1        16 0.00000E+00 0.00000E+00 0.00000E+00 0.00000E+00 0.00000E+00 0.00000E+00
 -3
    1PSTEP                        73           7           4          
  100CL  125 3.217812500          16                     0   25           1
 -4  DISP        4    1
 -5  D1          1    2    1    0
 -5  D2          1    2    2    0
 -5  D3          1    2    3    0
 -5  ALL         1    2    0    0    1ALL
 -1         1 0.00000E+00 0.00000E+00 0.00000E+00
 -1         2 0.00000E+00 0.00000E+00 0.00000E+00
 -1         3 2.01557E-06 3.46577E-06-1.01619E-05
 -1         4 5.41508E-06 1.08969E-05-2.45157E-05
 -1         5 0.00000E+00 0.00000E+00 0.00000E+00
 -1         6 0.00000E+00 0.00000E+00 0.00000E+00
 -1         7-2.01557E-06 3.46577E-06-1.01619E-05
 -1         8-5.41508E-06 1.08969E-05-2.45157E-05
 -1         9-1.18274E-13 1.00037E-01-3.08112E-05
 -1        10 2.02135E-05 1.00017E-01-2.87761E-05
 -1        11 2.02232E-05 1.00020E-01-1.24112E-04
 -1        12 0.00000E+00 1.00040E-01-1.26169E-04
 -1        13-2.02135E-05 1.00017E-01-2.87761E-05
 -1        14-1.18268E-13 9.99970E-02-2.67339E-05
 -1        15 0.00000E+00 1.00000E-01-1.22031E-04
 -1        16-2.02232E-05 1.00020E-01-1.24112E-04
 -3
    1PSTEP                        74           7           4          
  100CL  125 3.217812500          16                     0   25           1
 -4  STRESS      6    1
 -5  SXX         1    4    1    1
 -5  SYY         1    4    2    2
 -5  SZZ         1    4    3    3
 -5  SXY         1    4    1    2
 -5  SYZ         1    4    2    3
 -5  SZX         1    4    3    1
 -1         1-2.97016E+00-2.97015E+00-6.92997E+00 7.39619E-06 8.80067E-01 4.37334E-01
 -1         2-1.23113E+00-1.23113E+00-2.87251E+00-2.29249E-07 2.79926E-01 1.62793E-01
 -1         3 8.08780E-01 1.35803E+00-1.48377E+00 2.74579E-01-8.79413E-01 1.62788E-01
 -1         4 9.91852E-01 4.42777E-01-4.71749E+00 2.74585E-01-2.79219E-01 4.37342E-01
 -1         5-2.97016E+00-2.97015E+00-6.92997E+00-7.39619E-06 8.80067E-01-4.37334E-01
 -1         6-1.23113E+00-1.23113E+00-2.87251E+00 2.29249E-07 2.79926E-01-1.62793E-01
 -1         7 8.08780E-01 1.35803E+00-1.48377E+00-2.74579E-01-8.79413E-01-1.62788E-01
 -1         8 9.91852E-01 4.42777E-01-4.71749E+00-2.74585E-01-2.79219E-01-4.37342E-01
 -1         9-2.03646E-02-1.47012E-02-1.00032E+02-1.21834E-11 1.84138E-02-3.28468E-11
 -1        10-2.69783E-03 8.38574E-03-9.99964E+01 2.71029E-03 9.03828E-03 1.88671E-03
 -1        11-2.14637E-03-2.72669E-02-1.00007E+02-2.02671E-02-8.33987E-03-2.67590E-03
 -1        12 1.46529E-02 3.00670E-02-1.00008E+02 1.37476E-11 5.59794E-03-4.57249E-11
 -1        13-2.69783E-03 8.38574E-03-9.99964E+01-2.71029E-03 9.03828E-03-1.88671E-03
 -1        14 2.46544E-02 4.11591E-02-9.99381E+01 7.29854E-12 3.20974E-02-3.52866E-11
 -1        15-9.26021E-03-7.49144E-02-9.99830E+01-4.47381E-12 1.01570E-02-4.81640E-11
 -1        16-2.14637E-03-2.72669E-02-1.00007E+02 2.02671E-02-8.33987E-03 2.67590E-03
 -3
    1PSTEP                        75           7           4          
  100CL  125 3.217812500          16                     0   25           1
 -4  CONTACT     6    1
 -5  COPEN       1    4    1    1
 -5  CSLIP1      1    4    2    2
 -5  CSLIP2      1    4    3    3
 -5  CPRESS      1    4    1    2
 -5  CSHEAR1     1    4    2    3
 -5  CSHEAR2     1    4    3    1
 -1         1 0.00000E+00 0.00000E+00 0.00000E+00 0.00000E+00 0.00000E+00 0.00000E+00
 -1         2 0.00000E+00 0.00000E+00 0.00000E+00 0.00000E+00 0.00000E+00 0.00000E+00
 -1         3 0.00000E+00 0.00000E+00 0.00000E+00 0.00000E+00 0.00000E+00 0.00000E+00
 -1         4 0.00000E+00 0.00000E+00 0.00000E+00 0.00000E+00 0.00000E+00 0.00000E+00
 -1         5 0.00000E+00 0.00000E+00 0.00000E+00 0.00000E+00 0.00000E+00 0.00000E+00
 -1         6 0.00000E+00 0.00000E+00 0.00000E+00 0.00000E+00 0.00000E+00 0.00000E+00
 -1         7 0.00000E+00 0.00000E+00 0.00000E+00 0.00000E+00 0.00000E+00 0.00000E+00
 -1         8 0.00000E+00 0.00000E+00 0.00000E+00 0.00000E+00 0.00000E+00 0.00000E+00
 -1         9-1.00056E-05-4.39734E-13 1.00025E-01 1.00056E+02 2.11621E-11 9.89910E-03
 -1        10-1.00018E-05 1.52150E-05 1.00009E-01 1.00018E+02-1.61664E-06 9.89524E-03
 -1        11 0.00000E+00 0.00000E+00 0.00000E+00 0.00000E+00 0.00000E+00 0.00000E+00
 -1        12 0.00000E+00 0.00000E+00 0.00000E+00 0.00000E+00 0.00000E+00 0.00000E+00
 -1        13-1.00018E-05-1.52150E-05 1.00009E-01 1.00018E+02 1.61662E-06 9.89524E-03
 -1        14-9.99218E-06-4.32202E-13 9.99940E-02 9.99218E+01 1.06991E-11 9.88564E-03
 -1        15 0.00000E+00 0.00000E+00 0.00000E+00 0.00000E+00 0.00000E+00 0.00000E+00
 -1        16 0.00000E+00 0.00000E+00 0.00000E+00 0.00000E+00 0.00000E+00 0.00000E+00
 -3
    1PSTEP                        76           8           4          
  100CL  126 3.331718750          16                     0   26           1
 -4  DISP        4    1
 -5  D1          1    2    1    0
 -5  D2          1    2    2    0
 -5  D3          1    2    3    0
 -5  ALL         1    2    0    0    1ALL
 -1         1 0.00000E+00 0.00000E+00 0.00000E+00
 -1         2 0.00000E+00 0.00000E+00 0.00000E+00
 -1         3 2.01557E-06 3.46577E-06-1.01619E-05
 -1         4 5.41508E-06 1.08969E-05-2.45157E-05
 -1         5 0.00000E+00 0.00000E+00 0.00000E+00
 -1         6 0.00000E+00 0.00000E+00 0.00000E+00
 -1         7-2.01557E-06 3.46577E-06-1.01619E-05
 -1         8-5.41508E-06 1.08969E-05-2.45157E-05
 -1         9-1.18228E-13 1.00037E-01-3.08112E-05
 -1        10 2.02135E-05 1.00017E-01-2.87761E-05
 -1        11 2.02232E-05 1.00020E-01-1.24112E-04
 -1        12 0.00000E+00 1.00040E-01-1.26169E-04
 -1        13-2.02135E-05 1.00017E-01-2.87761E-05
 -1        14-1.18215E-13 9.99970E-02-2.67339E-05
 -1        15 0.00000E+00 1.00000E-01-1.22031E-04
 -1        16-2.02232E-05 1.00020E-01-1.24112E-04
 -3
    1PSTEP                        77           8           4          
  100CL  126 3.331718750          16                     0   26           1
 -4  STRESS      6    1
 -5  SXX         1    4    1    1
 -5  SYY         1    4    2    2
 -5  SZZ         1    4    3    3
 -5  SXY         1    4    1    2
 -5  SYZ         1    4    2    3
 -5  SZX         1    4    3    1
 -1         1-2.97016E+00-2.97015E+00-6.92997E+00 7.39619E-06 8.80067E-01 4.37334E-01
 -1         2-1.23113E+00-1.23113E+00-2.87251E+00-2.29249E-07 2.79926E-01 1.62793E-01
 -1         3 8.08780E-01 1.35803E+00-1.48377E+00 2.74579E-01-8.79413E-01 1.62788E-01
 -1         4 9.91852E-01 4.42777E-01-4.71749E+00 2.74585E-01-2.79219E-01 4.37342E-01
 -1         5-2.97016E+00-2.97015E+00-6.92997E+00-7.39619E-06 8.80067E-01-4.37334E-01
 -1         6-1.23113E+00-1.23113E+00-2.87251E+00 2.29249E-07 2.79926E-01-1.62793E-01
 -1         7 8.08780E-01 1.35803E+00-1.48377E+00-2.74579E-01-8.79413E-01-1.62788E-01
 -1         8 9.91852E-01 4.42777E-01-4.71749E+00-2.74585E-01-2.79219E-01-4.37342E-01
 -1         9-2.03646E-02-1.47012E-02-1.00032E+02-7.10668E-12 1.84138E-02-3.05110E-11
 -1        10-2.69783E-03 8.38574E-03-9.99964E+01 2.71029E-03 9.03828E-03 1.88671E-03
 -1        11-2.14637E-03-2.72669E-02-1.00007E+02-2.02671E-02-8.33987E-03-2.67590E-03
 -1        12 1.46529E-02 3.00670E-02-1.00008E+02 3.84264E-12 5.59794E-03-4.18469E-11
 -1        13-2.69783E-03 8.38574E-03-9.99964E+01-2.71029E-03 9.03828E-03-1.88671E-03
 -1        14 2.46544E-02 4.11591E-02-9.99381E+01 1.25305E-11 3.20974E-02-3.56579E-11
 -1        15-9.26021E-03-7.49144E-02-9.99830E+01 3.06104E-12 1.01570E-02-4.69929E-11
 -1        16-2.14637E-03-2.72669E-02-1.00007E+02 2.02671E-02-8.33987E-03 2.67590E-03
 -3
    1PSTEP                        78           8           4          
  100CL  126 3.331718750          16                     0   26           1
 -4  CONTACT     6    1
 -5  COPEN       1    4    1    1
 -5  CSLIP1      1    4    2    2
 -5  CSLIP2      1    4    3    3
 -5  CPRESS      1    4    1    2
 -5  CSHEAR1     1    4    2    3
 -5  CSHEAR2     1    4    3    1
 -1         1 0.00000E+00 0.00000E+00 0.00000E+00 0.00000E+00 0.00000E+00 0.00000E+00
 -1         2 0.00000E+00 0.00000E+00 0.00000E+00 0.00000E+00 0.00000E+00 0.00000E+00
 -1         3 0.00000E+00 0.00000E+00 0.00000E+00 0.00000E+00 0.00000E+00 0.00000E+00
 -1         4 0.00000E+00 0.00000E+00 0.00000E+00 0.00000E+00 0.00000E+00 0.00000E+00
 -1         5 0.00000E+00 0.00000E+00 0.00000E+00 0.00000E+00 0.00000E+00 0.00000E+00
 -1         6 0.00000E+00 0.00000E+00 0.00000E+00 0.00000E+00 0.00000E+00 0.00000E+00
 -1         7 0.00000E+00 0.00000E+00 0.00000E+00 0.00000E+00 0.00000E+00 0.00000E+00
 -1         8 0.00000E+00 0.00000E+00 0.00000E+00 0.00000E+00 0.00000E+00 0.00000E+00
 -1         9-1.00056E-05-4.39687E-13 1.00025E-01 1.00056E+02 2.12086E-11 9.89910E-03
 -1        10-1.00018E-05 1.52150E-05 1.00009E-01 1.00018E+02-1.61664E-06 9.89524E-03
 -1        11 0.00000E+00 0.00000E+00 0.00000E+00 0.00000E+00 0.00000E+00 0.00000E+00
 -1        12 0.00000E+00 0.00000E+00 0.00000E+00 0.00000E+00 0.00000E+00 0.00000E+00
 -1        13-1.00018E-05-1.52150E-05 1.00009E-01 1.00018E+02 1.61662E-06 9.89524E-03
 -1        14-9.99218E-06-4.32149E-13 9.99940E-02 9.99218E+01 1.07523E-11 9.88564E-03
 -1        15 0.00000E+00 0.00000E+00 0.00000E+00 0.00000E+00 0.00000E+00 0.00000E+00
 -1        16 0.00000E+00 0.00000E+00 0.00000E+00 0.00000E+00 0.00000E+00 0.00000E+00
 -3
    1PSTEP                        79           9           4          
  100CL  127 3.502578125          16                     0   27           1
 -4  DISP        4    1
 -5  D1          1    2    1    0
 -5  D2          1    2    2    0
 -5  D3          1    2    3    0
 -5  ALL         1    2    0    0    1ALL
 -1         1 0.00000E+00 0.00000E+00 0.00000E+00
 -1         2 0.00000E+00 0.00000E+00 0.00000E+00
 -1         3 2.01557E-06 3.46577E-06-1.01619E-05
 -1         4 5.41508E-06 1.08969E-05-2.45157E-05
 -1         5 0.00000E+00 0.00000E+00 0.00000E+00
 -1         6 0.00000E+00 0.00000E+00 0.00000E+00
 -1         7-2.01557E-06 3.46577E-06-1.01619E-05
 -1         8-5.41508E-06 1.08969E-05-2.45157E-05
 -1         9-1.18282E-13 1.00037E-01-3.08112E-05
 -1        10 2.02135E-05 1.00017E-01-2.87761E-05
 -1        11 2.02232E-05 1.00020E-01-1.24112E-04
 -1        12 0.00000E+00 1.00040E-01-1.26169E-04
 -1        13-2.02135E-05 1.00017E-01-2.87761E-05
 -1        14-1.18265E-13 9.99970E-02-2.67339E-05
 -1        15 0.00000E+00 1.00000E-01-1.22031E-04
 -1        16-2.02232E-05 1.00020E-01-1.24112E-04
 -3
    1PSTEP                        80           9           4          
  100CL  127 3.502578125          16                     0   27           1
 -4  STRESS      6    1
 -5  SXX         1    4    1    1
 -5  SYY         1    4    2    2
 -5  SZZ         1    4    3    3
 -5  SXY         1    4    1    2
 -5  SYZ         1    4    2    3
 -5  SZX         1    4    3    1
 -1         1-2.97016E+00-2.97015E+00-6.92997E+00 7.39619E-06 8.80067E-01 4.37334E-01
 -1         2-1.23113E+00-1.23113E+00-2.87251E+00-2.29249E-07 2.79926E-01 1.62793E-01
 -1         3 8.08780E-01 1.35803E+00-1.48377E+00 2.74579E-01-8.79413E-01 1.62788E-01
 -1         4 9.91852E-01 4.42777E-01-4.71749E+00 2.74585E-01-2.79219E-01 4.37342E-01
 -1         5-2.97016E+00-2.97015E+00-6.92997E+00-7.39619E-06 8.80067E-01-4.37334E-01
 -1         6-1.23113E+00-1.23113E+00-2.87251E+00 2.29249E-07 2.79926E-01-1.62793E-01
 -1         7 8.08780E-01 1.35803E+00-1.48377E+00-2.74579E-01-8.79413E-01-1.62788E-01
 -1         8 9.91852E-01 4.42777E-01-4.71749E+00-2.74585E-01-2.79219E-01-4.37342E-01
 -1         9-2.03646E-02-1.47012E-02-1.00032E+02-1.82086E-11 1.84138E-02-2.97593E-11
 -1        10-2.69783E-03 8.38574E-03-9.99964E+01 2.71029E-03 9.03828E-03 1.88671E-03
 -1        11-2.14637E-03-2.72669E-02-1.00007E+02-2.02671E-02-8.33987E-03-2.67590E-03
 -1        12 1.46529E-02 3.00670E-02-1.00008E+02 1.55647E-11 5.59794E-03-4.10538E-11
 -1        13-2.69783E-03 8.38574E-03-9.99964E+01-2.71029E-03 9.03828E-03-1.88671E-03
 -1        14 2.46544E-02 4.11591E-02-9.99381E+01 7.02917E-12 3.20974E-02-3.66476E-11
 -1        15-9.26021E-03-7.49144E-02-9.99830E+01-6.28826E-12 1.01570E-02-4.79331E-11
 -1        16-2.14637E-03-2.72669E-02-1.00007E+02 2.02671E-02-8.33987E-03 2.67590E-03
 -3
    1PSTEP                        81           9           4          
  100CL  127 3.502578125          16                     0   27           1
 -4  CONTACT     6    1
 -5  COPEN       1    4    1    1
 -5  CSLIP1      1    4    2    2
 -5  CSLIP2      1    4    3    3
 -5  CPRESS      1    4    1    2
 -5  CSHEAR1     1    4    2    3
 -5  CSHEAR2     1    4    3    1
 -1         1 0.00000E+00 0.00000E+00 0.00000E+00 0.00000E+00 0.00000E+00 0.00000E+00
 -1         2 0.00000E+00 0.00000E+00 0.00000E+00 0.00000E+00 0.00000E+00 0.00000E+00
 -1         3 0.00000E+00 0.00000E+00 0.00000E+00 0.00000E+00 0.00000E+00 0.00000E+00
 -1         4 0.00000E+00 0.00000E+00 0.00000E+00 0.00000E+00 0.00000E+00 0.00000E+00
 -1         5 0.00000E+00 0.00000E+00 0.00000E+00 0.00000E+00 0.00000E+00 0.00000E+00
 -1         6 0.00000E+00 0.00000E+00 0.00000E+00 0.00000E+00 0.00000E+00 0.00000E+00
 -1         7 0.00000E+00 0.00000E+00 0.00000E+00 0.00000E+00 0.00000E+00 0.00000E+00
 -1         8 0.00000E+00 0.00000E+00 0.00000E+00 0.00000E+00 0.00000E+00 0.00000E+00
 -1         9-1.00056E-05-4.39742E-13 1.00025E-01 1.00056E+02 2.11542E-11 9.89910E-03
 -1        10-1.00018E-05 1.52150E-05 1.00009E-01 1.00018E+02-1.61664E-06 9.89524E-03
 -1        11 0.00000E+00 0.00000E+00 0.00000E+00 0.00000E+00 0.00000E+00 0.00000E+00
 -1        12 0.00000E+00 0.00000E+00 0.00000E+00 0.00000E+00 0.00000E+00 0.00000E+00
 -1        13-1.00018E-05-1.52150E-05 1.00009E-01 1.00018E+02 1.61662E-06 9.89524E-03
 -1        14-9.99218E-06-4.32199E-13 9.99940E-02 9.99218E+01 1.07022E-11 9.88564E-03
 -1        15 0.00000E+00 0.00000E+00 0.00000E+00 0.00000E+00 0.00000E+00 0.00000E+00
 -1        16 0.00000E+00 0.00000E+00 0.00000E+00 0.00000E+00 0.00000E+00 0.00000E+00
 -3
    1PSTEP                        82          10           4          
  100CL  128 3.758867187          16                     0   28           1
 -4  DISP        4    1
 -5  D1          1    2    1    0
 -5  D2          1    2    2    0
 -5  D3          1    2    3    0
 -5  ALL         1    2    0    0    1ALL
 -1         1 0.00000E+00 0.00000E+00 0.00000E+00
 -1         2 0.00000E+00 0.00000E+00 0.00000E+00
 -1         3 2.01557E-06 3.46577E-06-1.01619E-05
 -1         4 5.41508E-06 1.08969E-05-2.45157E-05
 -1         5 0.00000E+00 0.00000E+00 0.00000E+00
 -1         6 0.00000E+00 0.00000E+00 0.00000E+00
 -1         7-2.01557E-06 3.46577E-06-1.01619E-05
 -1         8-5.41508E-06 1.08969E-05-2.45157E-05
 -1         9-1.18346E-13 1.00037E-01-3.08112E-05
 -1        10 2.02135E-05 1.00017E-01-2.87761E-05
 -1        11 2.02232E-05 1.00020E-01-1.24112E-04
 -1        12 0.00000E+00 1.00040E-01-1.26169E-04
 -1        13-2.02135E-05 1.00017E-01-2.87761E-05
 -1        14-1.18329E-13 9.99970E-02-2.67339E-05
 -1        15 0.00000E+00 1.00000E-01-1.22031E-04
 -1        16-2.02232E-05 1.00020E-01-1.24112E-04
 -3
    1PSTEP                        83          10           4          
  100CL  128 3.758867187          16                     0   28           1
 -4  STRESS      6    1
 -5  SXX         1    4    1    1
 -5  SYY         1    4    2    2
 -5  SZZ         1    4    3    3
 -5  SXY         1    4    1    2
 -5  SYZ         1    4    2    3
 -5  SZX         1    4    3    1
 -1         1-2.97016E+00-2.97015E+00-6.92997E+00 7.39619E-06 8.80067E-01 4.37334E-01
 -1         2-1.23113E+00-1.23113E+00-2.87251E+00-2.29249E-07 2.79926E-01 1.62793E-01
 -1         3 8.08780E-01 1.35803E+00-1.48377E+00 2.74579E-01-8.79413E-01 1.62788E-01
 -1         4 9.91852E-01 4.42777E-01-4.71749E+00 2.74585E-01-2.79219E-01 4.37342E-01
 -1         5-2.97016E+00-2.97015E+00-6.92997E+00-7.39619E-06 8.80067E-01-4.37334E-01
 -1         6-1.23113E+00-1.23113E+00-2.87251E+00 2.29249E-07 2.79926E-01-1.62793E-01
 -1         7 8.08780E-01 1.35803E+00-1.48377E+00-2.74579E-01-8.79413E-01-1.62788E-01
 -1         8 9.91852E-01 4.42777E-01-4.71749E+00-2.74585E-01-2.79219E-01-4.37342E-01
 -1         9-2.03646E-02-1.47012E-02-1.00032E+02-1.86189E-11 1.84138E-02-2.95745E-11
 -1        10-2.69783E-03 8.38574E-03-9.99964E+01 2.71029E-03 9.03828E-03 1.88671E-03
 -1        11-2.14637E-03-2.72669E-02-1.00007E+02-2.02671E-02-8.33987E-03-2.67590E-03
 -1        12 1.46529E-02 3.00670E-02-1.00008E+02 1.12790E-11 5.59794E-03-4.17332E-11
 -1        13-2.69783E-03 8.38574E-03-9.99964E+01-2.71029E-03 9.03828E-03-1.88671E-03
 -1        14 2.46544E-02 4.11591E-02-9.99381E+01 3.16530E-12 3.20974E-02-3.64795E-11
 -1        15-9.26021E-03-7.49144E-02-9.99830E+01 5.56502E-13 1.01570E-02-4.86374E-11
 -1        16-2.14637E-03-2.72669E-02-1.00007E+02 2.02671E-02-8.33987E-03 2.67590E-03
 -3
    1PSTEP                        84          10           4          
  100CL  128 3.758867187          16                     0   28           1
 -4  CONTACT     6    1
 -5  COPEN       1    4    1    1
 -5  CSLIP1      1    4    2    2
 -5  CSLIP2      1    4    3    3
 -5  CPRESS      1    4    1    2
 -5  CSHEAR1     1    4    2    3
 -5  CSHEAR2     1    4    3    1
 -1         1 0.00000E+00 0.00000E+00 0.00000E+00 0.00000E+00 0.00000E+00 0.00000E+00
 -1         2 0.00000E+00 0.00000E+00 0.00000E+00 0.00000E+00 0.00000E+00 0.00000E+00
 -1         3 0.00000E+00 0.00000E+00 0.00000E+00 0.00000E+00 0.00000E+00 0.00000E+00
 -1         4 0.00000E+00 0.00000E+00 0.00000E+00 0.00000E+00 0.00000E+00 0.00000E+00
 -1         5 0.00000E+00 0.00000E+00 0.00000E+00 0.00000E+00 0.00000E+00 0.00000E+00
 -1         6 0.00000E+00 0.00000E+00 0.00000E+00 0.00000E+00 0.00000E+00 0.00000E+00
 -1         7 0.00000E+00 0.00000E+00 0.00000E+00 0.00000E+00 0.00000E+00 0.00000E+00
 -1         8 0.00000E+00 0.00000E+00 0.00000E+00 0.00000E+00 0.00000E+00 0.00000E+00
 -1         9-1.00056E-05-4.39805E-13 1.00025E-01 1.00056E+02 2.10908E-11 9.89910E-03
 -1        10-1.00018E-05 1.52150E-05 1.00009E-01 1.00018E+02-1.61664E-06 9.89524E-03
 -1        11 0.00000E+00 0.00000E+00 0.00000E+00 0.00000E+00 0.00000E+00 0.00000E+00
 -1        12 0.00000E+00 0.00000E+00 0.00000E+00 0.00000E+00 0.00000E+00 0.00000E+00
 -1        13-1.00018E-05-1.52150E-05 1.00009E-01 1.00018E+02 1.61662E-06 9.89524E-03
 -1        14-9.99218E-06-4.32263E-13 9.99940E-02 9.99218E+01 1.06389E-11 9.88564E-03
 -1        15 0.00000E+00 0.00000E+00 0.00000E+00 0.00000E+00 0.00000E+00 0.00000E+00
 -1        16 0.00000E+00 0.00000E+00 0.00000E+00 0.00000E+00 0.00000E+00 0.00000E+00
 -3
    1PSTEP                        85          11           4          
  100CL  129 4.000000000          16                     0   29           1
 -4  DISP        4    1
 -5  D1          1    2    1    0
 -5  D2          1    2    2    0
 -5  D3          1    2    3    0
 -5  ALL         1    2    0    0    1ALL
 -1         1 0.00000E+00 0.00000E+00 0.00000E+00
 -1         2 0.00000E+00 0.00000E+00 0.00000E+00
 -1         3 2.01557E-06 3.46577E-06-1.01619E-05
 -1         4 5.41508E-06 1.08969E-05-2.45157E-05
 -1         5 0.00000E+00 0.00000E+00 0.00000E+00
 -1         6 0.00000E+00 0.00000E+00 0.00000E+00
 -1         7-2.01557E-06 3.46577E-06-1.01619E-05
 -1         8-5.41508E-06 1.08969E-05-2.45157E-05
 -1         9-1.18287E-13 1.00037E-01-3.08112E-05
 -1        10 2.02135E-05 1.00017E-01-2.87761E-05
 -1        11 2.02232E-05 1.00020E-01-1.24112E-04
 -1        12 0.00000E+00 1.00040E-01-1.26169E-04
 -1        13-2.02135E-05 1.00017E-01-2.87761E-05
 -1        14-1.18279E-13 9.99970E-02-2.67339E-05
 -1        15 0.00000E+00 1.00000E-01-1.22031E-04
 -1        16-2.02232E-05 1.00020E-01-1.24112E-04
 -3
    1PSTEP                        86          11           4          
  100CL  129 4.000000000          16                     0   29           1
 -4  STRESS      6    1
 -5  SXX         1    4    1    1
 -5  SYY         1    4    2    2
 -5  SZZ         1    4    3    3
 -5  SXY         1    4    1    2
 -5  SYZ         1    4    2    3
 -5  SZX         1    4    3    1
 -1         1-2.97016E+00-2.97015E+00-6.92997E+00 7.39619E-06 8.80067E-01 4.37334E-01
 -1         2-1.23113E+00-1.23113E+00-2.87251E+00-2.29249E-07 2.79926E-01 1.62793E-01
 -1         3 8.08780E-01 1.35803E+00-1.48377E+00 2.74579E-01-8.79413E-01 1.62788E-01
 -1         4 9.91852E-01 4.42777E-01-4.71749E+00 2.74585E-01-2.79219E-01 4.37342E-01
 -1         5-2.97016E+00-2.97015E+00-6.92997E+00-7.39619E-06 8.80067E-01-4.37334E-01
 -1         6-1.23113E+00-1.23113E+00-2.87251E+00 2.29249E-07 2.79926E-01-1.62793E-01
 -1         7 8.08780E-01 1.35803E+00-1.48377E+00-2.74579E-01-8.79413E-01-1.62788E-01
 -1         8 9.91852E-01 4.42777E-01-4.71749E+00-2.74585E-01-2.79219E-01-4.37342E-01
 -1         9-2.03646E-02-1.47012E-02-1.00032E+02-1.41943E-11 1.84138E-02-3.20899E-11
 -1        10-2.69783E-03 8.38574E-03-9.99964E+01 2.71029E-03 9.03828E-03 1.88671E-03
 -1        11-2.14637E-03-2.72669E-02-1.00007E+02-2.02671E-02-8.33987E-03-2.67590E-03
 -1        12 1.46529E-02 3.00670E-02-1.00008E+02 6.85456E-12 5.59794E-03-4.38611E-11
 -1        13-2.69783E-03 8.38574E-03-9.99964E+01-2.71029E-03 9.03828E-03-1.88671E-03
 -1        14 2.46544E-02 4.11591E-02-9.99381E+01 5.49046E-12 3.20974E-02-3.52322E-11
 -1        15-9.26021E-03-7.49144E-02-9.99830E+01 1.02866E-11 1.01570E-02-4.70167E-11
 -1        16-2.14637E-03-2.72669E-02-1.00007E+02 2.02671E-02-8.33987E-03 2.67590E-03
 -3
    1PSTEP                        87          11           4          
  100CL  129 4.000000000          16                     0   29           1
 -4  CONTACT     6    1
 -5  COPEN       1    4    1    1
 -5  CSLIP1      1    4    2    2
 -5  CSLIP2      1    4    3    3
 -5  CPRESS      1    4    1    2
 -5  CSHEAR1     1    4    2    3
 -5  CSHEAR2     1    4    3    1
 -1         1 0.00000E+00 0.00000E+00 0.00000E+00 0.00000E+00 0.00000E+00 0.00000E+00
 -1         2 0.00000E+00 0.00000E+00 0.00000E+00 0.00000E+00 0.00000E+00 0.00000E+00
 -1         3 0.00000E+00 0.00000E+00 0.00000E+00 0.00000E+00 0.00000E+00 0.00000E+00
 -1         4 0.00000E+00 0.00000E+00 0.00000E+00 0.00000E+00 0.00000E+00 0.00000E+00
 -1         5 0.00000E+00 0.00000E+00 0.00000E+00 0.00000E+00 0.00000E+00 0.00000E+00
 -1         6 0.00000E+00 0.00000E+00 0.00000E+00 0.00000E+00 0.00000E+00 0.00000E+00
 -1         7 0.00000E+00 0.00000E+00 0.00000E+00 0.00000E+00 0.00000E+00 0.00000E+00
 -1         8 0.00000E+00 0.00000E+00 0.00000E+00 0.00000E+00 0.00000E+00 0.00000E+00
 -1         9-1.00056E-05-4.39746E-13 1.00025E-01 1.00056E+02 2.11498E-11 9.89910E-03
 -1        10-1.00018E-05 1.52150E-05 1.00009E-01 1.00018E+02-1.61664E-06 9.89524E-03
 -1        11 0.00000E+00 0.00000E+00 0.00000E+00 0.00000E+00 0.00000E+00 0.00000E+00
 -1        12 0.00000E+00 0.00000E+00 0.00000E+00 0.00000E+00 0.00000E+00 0.00000E+00
 -1        13-1.00018E-05-1.52150E-05 1.00009E-01 1.00018E+02 1.61662E-06 9.89524E-03
 -1        14-9.99218E-06-4.32213E-13 9.99940E-02 9.99218E+01 1.06885E-11 9.88564E-03
 -1        15 0.00000E+00 0.00000E+00 0.00000E+00 0.00000E+00 0.00000E+00 0.00000E+00
 -1        16 0.00000E+00 0.00000E+00 0.00000E+00 0.00000E+00 0.00000E+00 0.00000E+00
 -3
    1PSTEP                        88           1           5          
  100CL  130 4.010000000          16                     0   30           1
 -4  DISP        4    1
 -5  D1          1    2    1    0
 -5  D2          1    2    2    0
 -5  D3          1    2    3    0
 -5  ALL         1    2    0    0    1ALL
 -1         1 0.00000E+00 0.00000E+00 0.00000E+00
 -1         2 0.00000E+00 0.00000E+00 0.00000E+00
 -1         3 2.01557E-06 3.46577E-06-1.01619E-05
 -1         4 5.41508E-06 1.08969E-05-2.45157E-05
 -1         5 0.00000E+00 0.00000E+00 0.00000E+00
 -1         6 0.00000E+00 0.00000E+00 0.00000E+00
 -1         7-2.01557E-06 3.46577E-06-1.01619E-05
 -1         8-5.41508E-06 1.08969E-05-2.45157E-05
 -1         9-1.18253E-13 1.00037E-01-3.08112E-05
 -1        10 2.02135E-05 1.00017E-01-2.87761E-05
 -1        11 2.02232E-05 1.00020E-01-1.24112E-04
 -1        12 0.00000E+00 1.00040E-01-1.26169E-04
 -1        13-2.02135E-05 1.00017E-01-2.87761E-05
 -1        14-1.18250E-13 9.99970E-02-2.67339E-05
 -1        15 0.00000E+00 1.00000E-01-1.22031E-04
 -1        16-2.02232E-05 1.00020E-01-1.24112E-04
 -3
    1PSTEP                        89           1           5          
  100CL  130 4.010000000          16                     0   30           1
 -4  STRESS      6    1
 -5  SXX         1    4    1    1
 -5  SYY         1    4    2    2
 -5  SZZ         1    4    3    3
 -5  SXY         1    4    1    2
 -5  SYZ         1    4    2    3
 -5  SZX         1    4    3    1
 -1         1-2.97016E+00-2.97015E+00-6.92997E+00 7.39619E-06 8.80067E-01 4.37334E-01
 -1         2-1.23113E+00-1.23113E+00-2.87251E+00-2.29249E-07 2.79926E-01 1.62793E-01
 -1         3 8.08780E-01 1.35803E+00-1.48377E+00 2.74579E-01-8.79413E-01 1.62788E-01
 -1         4 9.91852E-01 4.42777E-01-4.71749E+00 2.74585E-01-2.79219E-01 4.37342E-01
 -1         5-2.97016E+00-2.97015E+00-6.92997E+00-7.39619E-06 8.80067E-01-4.37334E-01
 -1         6-1.23113E+00-1.23113E+00-2.87251E+00 2.29249E-07 2.79926E-01-1.62793E-01
 -1         7 8.08780E-01 1.35803E+00-1.48377E+00-2.74579E-01-8.79413E-01-1.62788E-01
 -1         8 9.91852E-01 4.42777E-01-4.71749E+00-2.74585E-01-2.79219E-01-4.37342E-01
 -1         9-2.03646E-02-1.47012E-02-1.00032E+02-8.71079E-12 1.84138E-02-3.30138E-11
 -1        10-2.69783E-03 8.38574E-03-9.99964E+01 2.71029E-03 9.03828E-03 1.88671E-03
 -1        11-2.14637E-03-2.72669E-02-1.00007E+02-2.02671E-02-8.33987E-03-2.67590E-03
 -1        12 1.46529E-02 3.00670E-02-1.00008E+02-7.56767E-13 5.59794E-03-4.50388E-11
 -1        13-2.69783E-03 8.38574E-03-9.99964E+01-2.71029E-03 9.03828E-03-1.88671E-03
 -1        14 2.46544E-02 4.11591E-02-9.99381E+01 2.92619E-13 3.20974E-02-3.38995E-11
 -1        15-9.26021E-03-7.49144E-02-9.99830E+01-8.33961E-12 1.01570E-02-4.59172E-11
 -1        16-2.14637E-03-2.72669E-02-1.00007E+02 2.02671E-02-8.33987E-03 2.67590E-03
 -3
    1PSTEP                        90           1           5          
  100CL  130 4.010000000          16                     0   30           1
 -4  CONTACT     6    1
 -5  COPEN       1    4    1    1
 -5  CSLIP1      1    4    2    2
 -5  CSLIP2      1    4    3    3
 -5  CPRESS      1    4    1    2
 -5  CSHEAR1     1    4    2    3
 -5  CSHEAR2     1    4    3    1
 -1         1 0.00000E+00 0.00000E+00 0.00000E+00 0.00000E+00 0.00000E+00 0.00000E+00
 -1         2 0.00000E+00 0.00000E+00 0.00000E+00 0.00000E+00 0.00000E+00 0.00000E+00
 -1         3 0.00000E+00 0.00000E+00 0.00000E+00 0.00000E+00 0.00000E+00 0.00000E+00
 -1         4 0.00000E+00 0.00000E+00 0.00000E+00 0.00000E+00 0.00000E+00 0.00000E+00
 -1         5 0.00000E+00 0.00000E+00 0.00000E+00 0.00000E+00 0.00000E+00 0.00000E+00
 -1         6 0.00000E+00 0.00000E+00 0.00000E+00 0.00000E+00 0.00000E+00 0.00000E+00
 -1         7 0.00000E+00 0.00000E+00 0.00000E+00 0.00000E+00 0.00000E+00 0.00000E+00
 -1         8 0.00000E+00 0.00000E+00 0.00000E+00 0.00000E+00 0.00000E+00 0.00000E+00
 -1         9-1.00056E-05-4.39712E-13 1.00025E-01 1.00056E+02 2.11837E-11 9.89910E-03
 -1        10-1.00018E-05 1.52150E-05 1.00009E-01 1.00018E+02-1.61664E-06 9.89524E-03
 -1        11 0.00000E+00 0.00000E+00 0.00000E+00 0.00000E+00 0.00000E+00 0.00000E+00
 -1        12 0.00000E+00 0.00000E+00 0.00000E+00 0.00000E+00 0.00000E+00 0.00000E+00
 -1        13-1.00018E-05-1.52150E-05 1.00009E-01 1.00018E+02 1.61662E-06 9.89524E-03
 -1        14-9.99218E-06-4.32185E-13 9.99940E-02 9.99218E+01 1.07168E-11 9.88564E-03
 -1        15 0.00000E+00 0.00000E+00 0.00000E+00 0.00000E+00 0.00000E+00 0.00000E+00
 -1        16 0.00000E+00 0.00000E+00 0.00000E+00 0.00000E+00 0.00000E+00 0.00000E+00
 -3
    1PSTEP                        91           2           5          
  100CL  131 4.020000000          16                     0   31           1
 -4  DISP        4    1
 -5  D1          1    2    1    0
 -5  D2          1    2    2    0
 -5  D3          1    2    3    0
 -5  ALL         1    2    0    0    1ALL
 -1         1 0.00000E+00 0.00000E+00 0.00000E+00
 -1         2 0.00000E+00 0.00000E+00 0.00000E+00
 -1         3 2.01557E-06 3.46577E-06-1.01619E-05
 -1         4 5.41508E-06 1.08969E-05-2.45157E-05
 -1         5 0.00000E+00 0.00000E+00 0.00000E+00
 -1         6 0.00000E+00 0.00000E+00 0.00000E+00
 -1         7-2.01557E-06 3.46577E-06-1.01619E-05
 -1         8-5.41508E-06 1.08969E-05-2.45157E-05
 -1         9-1.18172E-13 1.00037E-01-3.08112E-05
 -1        10 2.02135E-05 1.00017E-01-2.87761E-05
 -1        11 2.02232E-05 1.00020E-01-1.24112E-04
 -1        12 0.00000E+00 1.00040E-01-1.26169E-04
 -1        13-2.02135E-05 1.00017E-01-2.87761E-05
 -1        14-1.18151E-13 9.99970E-02-2.67339E-05
 -1        15 0.00000E+00 1.00000E-01-1.22031E-04
 -1        16-2.02232E-05 1.00020E-01-1.24112E-04
 -3
    1PSTEP                        92           2           5          
  100CL  131 4.020000000          16                     0   31           1
 -4  STRESS      6    1
 -5  SXX         1    4    1    1
 -5  SYY         1    4    2    2
 -5  SZZ         1    4    3    3
 -5  SXY         1    4    1    2
 -5  SYZ         1    4    2    3
 -5  SZX         1    4    3    1
 -1         1-2.97016E+00-2.97015E+00-6.92997E+00 7.39619E-06 8.80067E-01 4.37334E-01
 -1         2-1.23113E+00-1.23113E+00-2.87251E+00-2.29249E-07 2.79926E-01 1.62793E-01
 -1         3 8.08780E-01 1.35803E+00-1.48377E+00 2.74579E-01-8.79413E-01 1.62788E-01
 -1         4 9.91852E-01 4.42777E-01-4.71749E+00 2.74585E-01-2.79219E-01 4.37342E-01
 -1         5-2.97016E+00-2.97015E+00-6.92997E+00-7.39619E-06 8.80067E-01-4.37334E-01
 -1         6-1.23113E+00-1.23113E+00-2.87251E+00 2.29249E-07 2.79926E-01-1.62793E-01
 -1         7 8.08780E-01 1.35803E+00-1.48377E+00-2.74579E-01-8.79413E-01-1.62788E-01
 -1         8 9.91852E-01 4.42777E-01-4.71749E+00-2.74585E-01-2.79219E-01-4.37342E-01
 -1         9-2.03646E-02-1.47012E-02-1.00032E+02-6.53525E-12 1.84138E-02-2.94952E-11
 -1        10-2.69783E-03 8.38574E-03-9.99964E+01 2.71029E-03 9.03828E-03 1.88671E-03
 -1        11-2.14637E-03-2.72669E-02-1.00007E+02-2.02671E-02-8.33987E-03-2.67590E-03
 -1        12 1.46529E-02 3.00670E-02-1.00008E+02-3.35152E-12 5.59794E-03-4.10940E-11
 -1        13-2.69783E-03 8.38574E-03-9.99964E+01-2.71029E-03 9.03828E-03-1.88671E-03
 -1        14 2.46544E-02 4.11591E-02-9.99381E+01 1.17264E-11 3.20974E-02-3.79180E-11
 -1        15-9.26021E-03-7.49144E-02-9.99830E+01-8.78086E-13 1.01570E-02-4.95045E-11
 -1        16-2.14637E-03-2.72669E-02-1.00007E+02 2.02671E-02-8.33987E-03 2.67590E-03
 -3
    1PSTEP                        93           2           5          
  100CL  131 4.020000000          16                     0   31           1
 -4  CONTACT     6    1
 -5  COPEN       1    4    1    1
 -5  CSLIP1      1    4    2    2
 -5  CSLIP2      1    4    3    3
 -5  CPRESS      1    4    1    2
 -5  CSHEAR1     1    4    2    3
 -5  CSHEAR2     1    4    3    1
 -1         1 0.00000E+00 0.00000E+00 0.00000E+00 0.00000E+00 0.00000E+00 0.00000E+00
 -1         2 0.00000E+00 0.00000E+00 0.00000E+00 0.00000E+00 0.00000E+00 0.00000E+00
 -1         3 0.00000E+00 0.00000E+00 0.00000E+00 0.00000E+00 0.00000E+00 0.00000E+00
 -1         4 0.00000E+00 0.00000E+00 0.00000E+00 0.00000E+00 0.00000E+00 0.00000E+00
 -1         5 0.00000E+00 0.00000E+00 0.00000E+00 0.00000E+00 0.00000E+00 0.00000E+00
 -1         6 0.00000E+00 0.00000E+00 0.00000E+00 0.00000E+00 0.00000E+00 0.00000E+00
 -1         7 0.00000E+00 0.00000E+00 0.00000E+00 0.00000E+00 0.00000E+00 0.00000E+00
 -1         8 0.00000E+00 0.00000E+00 0.00000E+00 0.00000E+00 0.00000E+00 0.00000E+00
 -1         9-1.00056E-05-4.39631E-13 1.00025E-01 1.00056E+02 2.12646E-11 9.89910E-03
 -1        10-1.00018E-05 1.52150E-05 1.00009E-01 1.00018E+02-1.61664E-06 9.89524E-03
 -1        11 0.00000E+00 0.00000E+00 0.00000E+00 0.00000E+00 0.00000E+00 0.00000E+00
 -1        12 0.00000E+00 0.00000E+00 0.00000E+00 0.00000E+00 0.00000E+00 0.00000E+00
 -1        13-1.00018E-05-1.52150E-05 1.00009E-01 1.00018E+02 1.61662E-06 9.89524E-03
 -1        14-9.99218E-06-4.32085E-13 9.99940E-02 9.99218E+01 1.08164E-11 9.88564E-03
 -1        15 0.00000E+00 0.00000E+00 0.00000E+00 0.00000E+00 0.00000E+00 0.00000E+00
 -1        16 0.00000E+00 0.00000E+00 0.00000E+00 0.00000E+00 0.00000E+00 0.00000E+00
 -3
    1PSTEP                        94           3           5          
  100CL  132 4.035000000          16                     0   32           1
 -4  DISP        4    1
 -5  D1          1    2    1    0
 -5  D2          1    2    2    0
 -5  D3          1    2    3    0
 -5  ALL         1    2    0    0    1ALL
 -1         1 0.00000E+00 0.00000E+00 0.00000E+00
 -1         2 0.00000E+00 0.00000E+00 0.00000E+00
 -1         3 2.01557E-06 3.46577E-06-1.01619E-05
 -1         4 5.41508E-06 1.08969E-05-2.45157E-05
 -1         5 0.00000E+00 0.00000E+00 0.00000E+00
 -1         6 0.00000E+00 0.00000E+00 0.00000E+00
 -1         7-2.01557E-06 3.46577E-06-1.01619E-05
 -1         8-5.41508E-06 1.08969E-05-2.45157E-05
 -1         9-1.18281E-13 1.00037E-01-3.08112E-05
 -1        10 2.02135E-05 1.00017E-01-2.87761E-05
 -1        11 2.02232E-05 1.00020E-01-1.24112E-04
 -1        12 0.00000E+00 1.00040E-01-1.26169E-04
 -1        13-2.02135E-05 1.00017E-01-2.87761E-05
 -1        14-1.18283E-13 9.99970E-02-2.67339E-05
 -1        15 0.00000E+00 1.00000E-01-1.22031E-04
 -1        16-2.02232E-05 1.00020E-01-1.24112E-04
 -3
    1PSTEP                        95           3           5          
  100CL  132 4.035000000          16                     0   32           1
 -4  STRESS      6    1
 -5  SXX         1    4    1    1
 -5  SYY         1    4    2    2
 -5  SZZ         1    4    3    3
 -5  SXY         1    4    1    2
 -5  SYZ         1    4    2    3
 -5  SZX         1    4    3    1
 -1         1-2.97016E+00-2.97015E+00-6.92997E+00 7.39619E-06 8.80067E-01 4.37334E-01
 -1         2-1.23113E+00-1.23113E+00-2.87251E+00-2.29249E-07 2.79926E-01 1.62793E-01
 -1         3 8.08780E-01 1.35803E+00-1.48377E+00 2.74579E-01-8.79413E-01 1.62788E-01
 -1         4 9.91852E-01 4.42777E-01-4.71749E+00 2.74585E-01-2.79219E-01 4.37342E-01
 -1         5-2.97016E+00-2.97015E+00-6.92997E+00-7.39619E-06 8.80067E-01-4.37334E-01
 -1         6-1.23113E+00-1.23113E+00-2.87251E+00 2.29249E-07 2.79926E-01-1.62793E-01
 -1         7 8.08780E-01 1.35803E+00-1.48377E+00-2.74579E-01-8.79413E-01-1.62788E-01
 -1         8 9.91852E-01 4.42777E-01-4.71749E+00-2.74585E-01-2.79219E-01-4.37342E-01
 -1         9-2.03646E-02-1.47012E-02-1.00032E+02-1.77720E-11 1.84138E-02-3.31030E-11
 -1        10-2.69783E-03 8.38574E-03-9.99964E+01 2.71029E-03 9.03828E-03 1.88671E-03
 -1        11-2.14637E-03-2.72669E-02-1.00007E+02-2.02671E-02-8.33987E-03-2.67590E-03
 -1        12 1.46529E-02 3.00670E-02-1.00008E+02 1.36900E-11 5.59794E-03-4.50670E-11
 -1        13-2.69783E-03 8.38574E-03-9.99964E+01-2.71029E-03 9.03828E-03-1.88671E-03
 -1        14 2.46544E-02 4.11591E-02-9.99381E+01 4.36363E-12 3.20974E-02-3.20777E-11
 -1        15-9.26021E-03-7.49144E-02-9.99830E+01 6.06389E-13 1.01570E-02-4.40408E-11
 -1        16-2.14637E-03-2.72669E-02-1.00007E+02 2.02671E-02-8.33987E-03 2.67590E-03
 -3
    1PSTEP                        96           3           5          
  100CL  132 4.035000000          16                     0   32           1
 -4  CONTACT     6    1
 -5  COPEN       1    4    1    1
 -5  CSLIP1      1    4    2    2
 -5  CSLIP2      1    4    3    3
 -5  CPRESS      1    4    1    2
 -5  CSHEAR1     1    4    2    3
 -5  CSHEAR2     1    4    3    1
 -1         1 0.00000E+00 0.00000E+00 0.00000E+00 0.00000E+00 0.00000E+00 0.00000E+00
 -1         2 0.00000E+00 0.00000E+00 0.00000E+00 0.00000E+00 0.00000E+00 0.00000E+00
 -1         3 0.00000E+00 0.00000E+00 0.00000E+00 0.00000E+00 0.00000E+00 0.00000E+00
 -1         4 0.00000E+00 0.00000E+00 0.00000E+00 0.00000E+00 0.00000E+00 0.00000E+00
 -1         5 0.00000E+00 0.00000E+00 0.00000E+00 0.00000E+00 0.00000E+00 0.00000E+00
 -1         6 0.00000E+00 0.00000E+00 0.00000E+00 0.00000E+00 0.00000E+00 0.00000E+00
 -1         7 0.00000E+00 0.00000E+00 0.00000E+00 0.00000E+00 0.00000E+00 0.00000E+00
 -1         8 0.00000E+00 0.00000E+00 0.00000E+00 0.00000E+00 0.00000E+00 0.00000E+00
 -1         9-1.00056E-05-4.39740E-13 1.00025E-01 1.00056E+02 2.11559E-11 9.89910E-03
 -1        10-1.00018E-05 1.52150E-05 1.00009E-01 1.00018E+02-1.61664E-06 9.89524E-03
 -1        11 0.00000E+00 0.00000E+00 0.00000E+00 0.00000E+00 0.00000E+00 0.00000E+00
 -1        12 0.00000E+00 0.00000E+00 0.00000E+00 0.00000E+00 0.00000E+00 0.00000E+00
 -1        13-1.00018E-05-1.52150E-05 1.00009E-01 1.00018E+02 1.61662E-06 9.89524E-03
 -1        14-9.99218E-06-4.32217E-13 9.99940E-02 9.99218E+01 1.06843E-11 9.88564E-03
 -1        15 0.00000E+00 0.00000E+00 0.00000E+00 0.00000E+00 0.00000E+00 0.00000E+00
 -1        16 0.00000E+00 0.00000E+00 0.00000E+00 0.00000E+00 0.00000E+00 0.00000E+00
 -3
    1PSTEP                        97           4           5          
  100CL  133 4.057500000          16                     0   33           1
 -4  DISP        4    1
 -5  D1          1    2    1    0
 -5  D2          1    2    2    0
 -5  D3          1    2    3    0
 -5  ALL         1    2    0    0    1ALL
 -1         1 0.00000E+00 0.00000E+00 0.00000E+00
 -1         2 0.00000E+00 0.00000E+00 0.00000E+00
 -1         3 2.01557E-06 3.46577E-06-1.01619E-05
 -1         4 5.41508E-06 1.08969E-05-2.45157E-05
 -1         5 0.00000E+00 0.00000E+00 0.00000E+00
 -1         6 0.00000E+00 0.00000E+00 0.00000E+00
 -1         7-2.01557E-06 3.46577E-06-1.01619E-05
 -1         8-5.41508E-06 1.08969E-05-2.45157E-05
 -1         9-1.18217E-13 1.00037E-01-3.08112E-05
 -1        10 2.02135E-05 1.00017E-01-2.87761E-05
 -1        11 2.02232E-05 1.00020E-01-1.24112E-04
 -1        12 0.00000E+00 1.00040E-01-1.26169E-04
 -1        13-2.02135E-05 1.00017E-01-2.87761E-05
 -1        14-1.18217E-13 9.99970E-02-2.67339E-05
 -1        15 0.00000E+00 1.00000E-01-1.22031E-04
 -1        16-2.02232E-05 1.00020E-01-1.24112E-04
 -3
    1PSTEP                        98           4           5          
  100CL  133 4.057500000          16                     0   33           1
 -4  STRESS      6    1
 -5  SXX         1    4    1    1
 -5  SYY         1    4    2    2
 -5  SZZ         1    4    3    3
 -5  SXY         1    4    1    2
 -5  SYZ         1    4    2    3
 -5  SZX         1    4    3    1
 -1         1-2.97016E+00-2.97015E+00-6.92997E+00 7.39619E-06 8.80067E-01 4.37334E-01
 -1         2-1.23113E+00-1.23113E+00-2.87251E+00-2.29249E-07 2.79926E-01 1.62793E-01
 -1         3 8.08780E-01 1.35803E+00-1.48377E+00 2.74579E-01-8.79413E-01 1.62788E-01
 -1         4 9.91852E-01 4.42777E-01-4.71749E+00 2.74585E-01-2.79219E-01 4.37342E-01
 -1         5-2.97016E+00-2.97015E+00-6.92997E+00-7.39619E-06 8.80067E-01-4.37334E-01
 -1         6-1.23113E+00-1.23113E+00-2.87251E+00 2.29249E-07 2.79926E-01-1.62793E-01
 -1         7 8.08780E-01 1.35803E+00-1.48377E+00-2.74579E-01-8.79413E-01-1.62788E-01
 -1         8 9.91852E-01 4.42777E-01-4.71749E+00-2.74585E-01-2.79219E-01-4.37342E-01
 -1         9-2.03646E-02-1.47012E-02-1.00032E+02-1.28663E-11 1.84138E-02-3.51521E-11
 -1        10-2.69783E-03 8.38574E-03-9.99964E+01 2.71029E-03 9.03828E-03 1.88671E-03
 -1        11-2.14637E-03-2.72669E-02-1.00007E+02-2.02671E-02-8.33987E-03-2.67590E-03
 -1        12 1.46529E-02 3.00670E-02-1.00008E+02 5.90069E-12 5.59794E-03-4.58483E-11
 -1        13-2.69783E-03 8.38574E-03-9.99964E+01-2.71029E-03 9.03828E-03-1.88671E-03
 -1        14 2.46544E-02 4.11591E-02-9.99381E+01 5.74466E-12 3.20974E-02-3.51819E-11
 -1        15-9.26021E-03-7.49144E-02-9.99830E+01 6.26596E-13 1.01570E-02-4.58642E-11
 -1        16-2.14637E-03-2.72669E-02-1.00007E+02 2.02671E-02-8.33987E-03 2.67590E-03
 -3
    1PSTEP                        99           4           5          
  100CL  133 4.057500000          16                     0   33           1
 -4  CONTACT     6    1
 -5  COPEN       1    4    1    1
 -5  CSLIP1      1    4    2    2
 -5  CSLIP2      1    4    3    3
 -5  CPRESS      1    4    1    2
 -5  CSHEAR1     1    4    2    3
 -5  CSHEAR2     1    4    3    1
 -1         1 0.00000E+00 0.00000E+00 0.00000E+00 0.00000E+00 0.00000E+00 0.00000E+00
 -1         2 0.00000E+00 0.00000E+00 0.00000E+00 0.00000E+00 0.00000E+00 0.00000E+00
 -1         3 0.00000E+00 0.00000E+00 0.00000E+00 0.00000E+00 0.00000E+00 0.00000E+00
 -1         4 0.00000E+00 0.00000E+00 0.00000E+00 0.00000E+00 0.00000E+00 0.00000E+00
 -1         5 0.00000E+00 0.00000E+00 0.00000E+00 0.00000E+00 0.00000E+00 0.00000E+00
 -1         6 0.00000E+00 0.00000E+00 0.00000E+00 0.00000E+00 0.00000E+00 0.00000E+00
 -1         7 0.00000E+00 0.00000E+00 0.00000E+00 0.00000E+00 0.00000E+00 0.00000E+00
 -1         8 0.00000E+00 0.00000E+00 0.00000E+00 0.00000E+00 0.00000E+00 0.00000E+00
 -1         9-1.00056E-05-4.39677E-13 1.00025E-01 1.00056E+02 2.12192E-11 9.89910E-03
 -1        10-1.00018E-05 1.52150E-05 1.00009E-01 1.00018E+02-1.61664E-06 9.89524E-03
 -1        11 0.00000E+00 0.00000E+00 0.00000E+00 0.00000E+00 0.00000E+00 0.00000E+00
 -1        12 0.00000E+00 0.00000E+00 0.00000E+00 0.00000E+00 0.00000E+00 0.00000E+00
 -1        13-1.00018E-05-1.52150E-05 1.00009E-01 1.00018E+02 1.61662E-06 9.89524E-03
 -1        14-9.99218E-06-4.32151E-13 9.99940E-02 9.99218E+01 1.07501E-11 9.88564E-03
 -1        15 0.00000E+00 0.00000E+00 0.00000E+00 0.00000E+00 0.00000E+00 0.00000E+00
 -1        16 0.00000E+00 0.00000E+00 0.00000E+00 0.00000E+00 0.00000E+00 0.00000E+00
 -3
    1PSTEP                       100           5           5          
  100CL  134 4.091250000          16                     0   34           1
 -4  DISP        4    1
 -5  D1          1    2    1    0
 -5  D2          1    2    2    0
 -5  D3          1    2    3    0
 -5  ALL         1    2    0    0    1ALL
 -1         1 0.00000E+00 0.00000E+00 0.00000E+00
 -1         2 0.00000E+00 0.00000E+00 0.00000E+00
 -1         3 2.01557E-06 3.46577E-06-1.01619E-05
 -1         4 5.41508E-06 1.08969E-05-2.45157E-05
 -1         5 0.00000E+00 0.00000E+00 0.00000E+00
 -1         6 0.00000E+00 0.00000E+00 0.00000E+00
 -1         7-2.01557E-06 3.46577E-06-1.01619E-05
 -1         8-5.41508E-06 1.08969E-05-2.45157E-05
 -1         9-1.18215E-13 1.00037E-01-3.08112E-05
 -1        10 2.02135E-05 1.00017E-01-2.87761E-05
 -1        11 2.02232E-05 1.00020E-01-1.24112E-04
 -1        12 0.00000E+00 1.00040E-01-1.26169E-04
 -1        13-2.02135E-05 1.00017E-01-2.87761E-05
 -1        14-1.18210E-13 9.99970E-02-2.67339E-05
 -1        15 0.00000E+00 1.00000E-01-1.22031E-04
 -1        16-2.02232E-05 1.00020E-01-1.24112E-04
 -3
    1PSTEP                       101           5           5          
  100CL  134 4.091250000          16                     0   34           1
 -4  STRESS      6    1
 -5  SXX         1    4    1    1
 -5  SYY         1    4    2    2
 -5  SZZ         1    4    3    3
 -5  SXY         1    4    1    2
 -5  SYZ         1    4    2    3
 -5  SZX         1    4    3    1
 -1         1-2.97016E+00-2.97015E+00-6.92997E+00 7.39619E-06 8.80067E-01 4.37334E-01
 -1         2-1.23113E+00-1.23113E+00-2.87251E+00-2.29249E-07 2.79926E-01 1.62793E-01
 -1         3 8.08780E-01 1.35803E+00-1.48377E+00 2.74579E-01-8.79413E-01 1.62788E-01
 -1         4 9.91852E-01 4.42777E-01-4.71749E+00 2.74585E-01-2.79219E-01 4.37342E-01
 -1         5-2.97016E+00-2.97015E+00-6.92997E+00-7.39619E-06 8.80067E-01-4.37334E-01
 -1         6-1.23113E+00-1.23113E+00-2.87251E+00 2.29249E-07 2.79926E-01-1.62793E-01
 -1         7 8.08780E-01 1.35803E+00-1.48377E+00-2.74579E-01-8.79413E-01-1.62788E-01
 -1         8 9.91852E-01 4.42777E-01-4.71749E+00-2.74585E-01-2.79219E-01-4.37342E-01
 -1         9-2.03646E-02-1.47012E-02-1.00032E+02-1.74202E-12 1.84138E-02-3.13270E-11
 -1        10-2.69783E-03 8.38574E-03-9.99964E+01 2.71029E-03 9.03828E-03 1.88671E-03
 -1        11-2.14637E-03-2.72669E-02-1.00007E+02-2.02671E-02-8.33987E-03-2.67590E-03
 -1        12 1.46529E-02 3.00670E-02-1.00008E+02 1.63656E-11 5.59794E-03-4.39964E-11
 -1        13-2.69783E-03 8.38574E-03-9.99964E+01-2.71029E-03 9.03828E-03-1.88671E-03
 -1        14 2.46544E-02 4.11591E-02-9.99381E+01 1.11546E-11 3.20974E-02-3.33280E-11
 -1        15-9.26021E-03-7.49144E-02-9.99830E+01-5.06700E-12 1.01570E-02-4.59973E-11
 -1        16-2.14637E-03-2.72669E-02-1.00007E+02 2.02671E-02-8.33987E-03 2.67590E-03
 -3
    1PSTEP                       102           5           5          
  100CL  134 4.091250000          16                     0   34           1
 -4  CONTACT     6    1
 -5  COPEN       1    4    1    1
 -5  CSLIP1      1    4    2    2
 -5  CSLIP2      1    4    3    3
 -5  CPRESS      1    4    1    2
 -5  CSHEAR1     1    4    2    3
 -5  CSHEAR2     1    4    3    1
 -1         1 0.00000E+00 0.00000E+00 0.00000E+00 0.00000E+00 0.00000E+00 0.00000E+00
 -1         2 0.00000E+00 0.00000E+00 0.00000E+00 0.00000E+00 0.00000E+00 0.00000E+00
 -1         3 0.00000E+00 0.00000E+00 0.00000E+00 0.00000E+00 0.00000E+00 0.00000E+00
 -1         4 0.00000E+00 0.00000E+00 0.00000E+00 0.00000E+00 0.00000E+00 0.00000E+00
 -1         5 0.00000E+00 0.00000E+00 0.00000E+00 0.00000E+00 0.00000E+00 0.00000E+00
 -1         6 0.00000E+00 0.00000E+00 0.00000E+00 0.00000E+00 0.00000E+00 0.00000E+00
 -1         7 0.00000E+00 0.00000E+00 0.00000E+00 0.00000E+00 0.00000E+00 0.00000E+00
 -1         8 0.00000E+00 0.00000E+00 0.00000E+00 0.00000E+00 0.00000E+00 0.00000E+00
 -1         9-1.00056E-05-4.39675E-13 1.00025E-01 1.00056E+02 2.12213E-11 9.89910E-03
 -1        10-1.00018E-05 1.52150E-05 1.00009E-01 1.00018E+02-1.61664E-06 9.89524E-03
 -1        11 0.00000E+00 0.00000E+00 0.00000E+00 0.00000E+00 0.00000E+00 0.00000E+00
 -1        12 0.00000E+00 0.00000E+00 0.00000E+00 0.00000E+00 0.00000E+00 0.00000E+00
 -1        13-1.00018E-05-1.52150E-05 1.00009E-01 1.00018E+02 1.61662E-06 9.89524E-03
 -1        14-9.99218E-06-4.32144E-13 9.99940E-02 9.99218E+01 1.07572E-11 9.88564E-03
 -1        15 0.00000E+00 0.00000E+00 0.00000E+00 0.00000E+00 0.00000E+00 0.00000E+00
 -1        16 0.00000E+00 0.00000E+00 0.00000E+00 0.00000E+00 0.00000E+00 0.00000E+00
 -3
    1PSTEP                       103           6           5          
  100CL  135 4.141875000          16                     0   35           1
 -4  DISP        4    1
 -5  D1          1    2    1    0
 -5  D2          1    2    2    0
 -5  D3          1    2    3    0
 -5  ALL         1    2    0    0    1ALL
 -1         1 0.00000E+00 0.00000E+00 0.00000E+00
 -1         2 0.00000E+00 0.00000E+00 0.00000E+00
 -1         3 2.01557E-06 3.46577E-06-1.01619E-05
 -1         4 5.41508E-06 1.08969E-05-2.45157E-05
 -1         5 0.00000E+00 0.00000E+00 0.00000E+00
 -1         6 0.00000E+00 0.00000E+00 0.00000E+00
 -1         7-2.01557E-06 3.46577E-06-1.01619E-05
 -1         8-5.41508E-06 1.08969E-05-2.45157E-05
 -1         9-1.18220E-13 1.00037E-01-3.08112E-05
 -1        10 2.02135E-05 1.00017E-01-2.87761E-05
 -1        11 2.02232E-05 1.00020E-01-1.24112E-04
 -1        12 0.00000E+00 1.00040E-01-1.26169E-04
 -1        13-2.02135E-05 1.00017E-01-2.87761E-05
 -1        14-1.18209E-13 9.99970E-02-2.67339E-05
 -1        15 0.00000E+00 1.00000E-01-1.22031E-04
 -1        16-2.02232E-05 1.00020E-01-1.24112E-04
 -3
    1PSTEP                       104           6           5          
  100CL  135 4.141875000          16                     0   35           1
 -4  STRESS      6    1
 -5  SXX         1    4    1    1
 -5  SYY         1    4    2    2
 -5  SZZ         1    4    3    3
 -5  SXY         1    4    1    2
 -5  SYZ         1    4    2    3
 -5  SZX         1    4    3    1
 -1         1-2.97016E+00-2.97015E+00-6.92997E+00 7.39619E-06 8.80067E-01 4.37334E-01
 -1         2-1.23113E+00-1.23113E+00-2.87251E+00-2.29249E-07 2.79926E-01 1.62793E-01
 -1         3 8.08780E-01 1.35803E+00-1.48377E+00 2.74579E-01-8.79413E-01 1.62788E-01
 -1         4 9.91852E-01 4.42777E-01-4.71749E+00 2.74585E-01-2.79219E-01 4.37342E-01
 -1         5-2.97016E+00-2.97015E+00-6.92997E+00-7.39619E-06 8.80067E-01-4.37334E-01
 -1         6-1.23113E+00-1.23113E+00-2.87251E+00 2.29249E-07 2.79926E-01-1.62793E-01
 -1         7 8.08780E-01 1.35803E+00-1.48377E+00-2.74579E-01-8.79413E-01-1.62788E-01
 -1         8 9.91852E-01 4.42777E-01-4.71749E+00-2.74585E-01-2.79219E-01-4.37342E-01
 -1         9-2.03646E-02-1.47012E-02-1.00032E+02-3.34290E-12 1.84138E-02-3.23864E-11
 -1        10-2.69783E-03 8.38574E-03-9.99964E+01 2.71029E-03 9.03828E-03 1.88671E-03
 -1        11-2.14637E-03-2.72669E-02-1.00007E+02-2.02671E-02-8.33987E-03-2.67590E-03
 -1        12 1.46529E-02 3.00670E-02-1.00008E+02 3.78529E-12 5.59794E-03-4.43697E-11
 -1        13-2.69783E-03 8.38574E-03-9.99964E+01-2.71029E-03 9.03828E-03-1.88671E-03
 -1        14 2.46544E-02 4.11591E-02-9.99381E+01 2.16375E-12 3.20974E-02-3.68610E-11
 -1        15-9.26021E-03-7.49144E-02-9.99830E+01-5.41841E-13 1.01570E-02-4.88436E-11
 -1        16-2.14637E-03-2.72669E-02-1.00007E+02 2.02671E-02-8.33987E-03 2.67590E-03
 -3
    1PSTEP                       105           6           5          
  100CL  135 4.141875000          16                     0   35           1
 -4  CONTACT     6    1
 -5  COPEN       1    4    1    1
 -5  CSLIP1      1    4    2    2
 -5  CSLIP2      1    4    3    3
 -5  CPRESS      1    4    1    2
 -5  CSHEAR1     1    4    2    3
 -5  CSHEAR2     1    4    3    1
 -1         1 0.00000E+00 0.00000E+00 0.00000E+00 0.00000E+00 0.00000E+00 0.00000E+00
 -1         2 0.00000E+00 0.00000E+00 0.00000E+00 0.00000E+00 0.00000E+00 0.00000E+00
 -1         3 0.00000E+00 0.00000E+00 0.00000E+00 0.00000E+00 0.00000E+00 0.00000E+00
 -1         4 0.00000E+00 0.00000E+00 0.00000E+00 0.00000E+00 0.00000E+00 0.00000E+00
 -1         5 0.00000E+00 0.00000E+00 0.00000E+00 0.00000E+00 0.00000E+00 0.00000E+00
 -1         6 0.00000E+00 0.00000E+00 0.00000E+00 0.00000E+00 0.00000E+00 0.00000E+00
 -1         7 0.00000E+00 0.00000E+00 0.00000E+00 0.00000E+00 0.00000E+00 0.00000E+00
 -1         8 0.00000E+00 0.00000E+00 0.00000E+00 0.00000E+00 0.00000E+00 0.00000E+00
 -1         9-1.00056E-05-4.39680E-13 1.00025E-01 1.00056E+02 2.12160E-11 9.89910E-03
 -1        10-1.00018E-05 1.52150E-05 1.00009E-01 1.00018E+02-1.61664E-06 9.89524E-03
 -1        11 0.00000E+00 0.00000E+00 0.00000E+00 0.00000E+00 0.00000E+00 0.00000E+00
 -1        12 0.00000E+00 0.00000E+00 0.00000E+00 0.00000E+00 0.00000E+00 0.00000E+00
 -1        13-1.00018E-05-1.52150E-05 1.00009E-01 1.00018E+02 1.61662E-06 9.89524E-03
 -1        14-9.99218E-06-4.32143E-13 9.99940E-02 9.99218E+01 1.07580E-11 9.88564E-03
 -1        15 0.00000E+00 0.00000E+00 0.00000E+00 0.00000E+00 0.00000E+00 0.00000E+00
 -1        16 0.00000E+00 0.00000E+00 0.00000E+00 0.00000E+00 0.00000E+00 0.00000E+00
 -3
    1PSTEP                       106           7           5          
  100CL  136 4.217812500          16                     0   36           1
 -4  DISP        4    1
 -5  D1          1    2    1    0
 -5  D2          1    2    2    0
 -5  D3          1    2    3    0
 -5  ALL         1    2    0    0    1ALL
 -1         1 0.00000E+00 0.00000E+00 0.00000E+00
 -1         2 0.00000E+00 0.00000E+00 0.00000E+00
 -1         3 2.01557E-06 3.46577E-06-1.01619E-05
 -1         4 5.41508E-06 1.08969E-05-2.45157E-05
 -1         5 0.00000E+00 0.00000E+00 0.00000E+00
 -1         6 0.00000E+00 0.00000E+00 0.00000E+00
 -1         7-2.01557E-06 3.46577E-06-1.01619E-05
 -1         8-5.41508E-06 1.08969E-05-2.45157E-05
 -1         9-1.18241E-13 1.00037E-01-3.08112E-05
 -1        10 2.02135E-05 1.00017E-01-2.87761E-05
 -1        11 2.02232E-05 1.00020E-01-1.24112E-04
 -1        12 0.00000E+00 1.00040E-01-1.26169E-04
 -1        13-2.02135E-05 1.00017E-01-2.87761E-05
 -1        14-1.18228E-13 9.99970E-02-2.67339E-05
 -1        15 0.00000E+00 1.00000E-01-1.22031E-04
 -1        16-2.02232E-05 1.00020E-01-1.24112E-04
 -3
    1PSTEP                       107           7           5          
  100CL  136 4.217812500          16                     0   36           1
 -4  STRESS      6    1
 -5  SXX         1    4    1    1
 -5  SYY         1    4    2    2
 -5  SZZ         1    4    3    3
 -5  SXY         1    4    1    2
 -5  SYZ         1    4    2    3
 -5  SZX         1    4    3    1
 -1         1-2.97016E+00-2.97015E+00-6.92997E+00 7.39619E-06 8.80067E-01 4.37334E-01
 -1         2-1.23113E+00-1.23113E+00-2.87251E+00-2.29249E-07 2.79926E-01 1.62793E-01
 -1         3 8.08780E-01 1.35803E+00-1.48377E+00 2.74579E-01-8.79413E-01 1.62788E-01
 -1         4 9.91852E-01 4.42777E-01-4.71749E+00 2.74585E-01-2.79219E-01 4.37342E-01
 -1         5-2.97016E+00-2.97015E+00-6.92997E+00-7.39619E-06 8.80067E-01-4.37334E-01
 -1         6-1.23113E+00-1.23113E+00-2.87251E+00 2.29249E-07 2.79926E-01-1.62793E-01
 -1         7 8.08780E-01 1.35803E+00-1.48377E+00-2.74579E-01-8.79413E-01-1.62788E-01
 -1         8 9.91852E-01 4.42777E-01-4.71749E+00-2.74585E-01-2.79219E-01-4.37342E-01
 -1         9-2.03646E-02-1.47012E-02-1.00032E+02-6.44982E-12 1.84138E-02-3.22546E-11
 -1        10-2.69783E-03 8.38574E-03-9.99964E+01 2.71029E-03 9.03828E-03 1.88671E-03
 -1        11-2.14637E-03-2.72669E-02-1.00007E+02-2.02671E-02-8.33987E-03-2.67590E-03
 -1        12 1.46529E-02 3.00670E-02-1.00008E+02 4.66292E-12 5.59794E-03-4.33298E-11
 -1        13-2.69783E-03 8.38574E-03-9.99964E+01-2.71029E-03 9.03828E-03-1.88671E-03
 -1        14 2.46544E-02 4.11591E-02-9.99381E+01 1.02530E-11 3.20974E-02-3.75453E-11
 -1        15-9.26021E-03-7.49144E-02-9.99830E+01-3.06471E-12 1.01570E-02-4.86132E-11
 -1        16-2.14637E-03-2.72669E-02-1.00007E+02 2.02671E-02-8.33987E-03 2.67590E-03
 -3
    1PSTEP                       108           7           5          
  100CL  136 4.217812500          16                     0   36           1
 -4  CONTACT     6    1
 -5  COPEN       1    4    1    1
 -5  CSLIP1      1    4    2    2
 -5  CSLIP2      1    4    3    3
 -5  CPRESS      1    4    1    2
 -5  CSHEAR1     1    4    2    3
 -5  CSHEAR2     1    4    3    1
 -1         1 0.00000E+00 0.00000E+00 0.00000E+00 0.00000E+00 0.00000E+00 0.00000E+00
 -1         2 0.00000E+00 0.00000E+00 0.00000E+00 0.00000E+00 0.00000E+00 0.00000E+00
 -1         3 0.00000E+00 0.00000E+00 0.00000E+00 0.00000E+00 0.00000E+00 0.00000E+00
 -1         4 0.00000E+00 0.00000E+00 0.00000E+00 0.00000E+00 0.00000E+00 0.00000E+00
 -1         5 0.00000E+00 0.00000E+00 0.00000E+00 0.00000E+00 0.00000E+00 0.00000E+00
 -1         6 0.00000E+00 0.00000E+00 0.00000E+00 0.00000E+00 0.00000E+00 0.00000E+00
 -1         7 0.00000E+00 0.00000E+00 0.00000E+00 0.00000E+00 0.00000E+00 0.00000E+00
 -1         8 0.00000E+00 0.00000E+00 0.00000E+00 0.00000E+00 0.00000E+00 0.00000E+00
 -1         9-1.00056E-05-4.39701E-13 1.00025E-01 1.00056E+02 2.11953E-11 9.89910E-03
 -1        10-1.00018E-05 1.52150E-05 1.00009E-01 1.00018E+02-1.61664E-06 9.89524E-03
 -1        11 0.00000E+00 0.00000E+00 0.00000E+00 0.00000E+00 0.00000E+00 0.00000E+00
 -1        12 0.00000E+00 0.00000E+00 0.00000E+00 0.00000E+00 0.00000E+00 0.00000E+00
 -1        13-1.00018E-05-1.52150E-05 1.00009E-01 1.00018E+02 1.61662E-06 9.89524E-03
 -1        14-9.99218E-06-4.32162E-13 9.99940E-02 9.99218E+01 1.07393E-11 9.88564E-03
 -1        15 0.00000E+00 0.00000E+00 0.00000E+00 0.00000E+00 0.00000E+00 0.00000E+00
 -1        16 0.00000E+00 0.00000E+00 0.00000E+00 0.00000E+00 0.00000E+00 0.00000E+00
 -3
    1PSTEP                       109           8           5          
  100CL  137 4.331718750          16                     0   37           1
 -4  DISP        4    1
 -5  D1          1    2    1    0
 -5  D2          1    2    2    0
 -5  D3          1    2    3    0
 -5  ALL         1    2    0    0    1ALL
 -1         1 0.00000E+00 0.00000E+00 0.00000E+00
 -1         2 0.00000E+00 0.00000E+00 0.00000E+00
 -1         3 2.01557E-06 3.46577E-06-1.01619E-05
 -1         4 5.41508E-06 1.08969E-05-2.45157E-05
 -1         5 0.00000E+00 0.00000E+00 0.00000E+00
 -1         6 0.00000E+00 0.00000E+00 0.00000E+00
 -1         7-2.01557E-06 3.46577E-06-1.01619E-05
 -1         8-5.41508E-06 1.08969E-05-2.45157E-05
 -1         9-1.18214E-13 1.00037E-01-3.08112E-05
 -1        10 2.02135E-05 1.00017E-01-2.87761E-05
 -1        11 2.02232E-05 1.00020E-01-1.24112E-04
 -1        12 0.00000E+00 1.00040E-01-1.26169E-04
 -1        13-2.02135E-05 1.00017E-01-2.87761E-05
 -1        14-1.18203E-13 9.99970E-02-2.67339E-05
 -1        15 0.00000E+00 1.00000E-01-1.22031E-04
 -1        16-2.02232E-05 1.00020E-01-1.24112E-04
 -3
    1PSTEP                       110           8           5          
  100CL  137 4.331718750          16                     0   37           1
 -4  STRESS      6    1
 -5  SXX         1    4    1    1
 -5  SYY         1    4    2    2
 -5  SZZ         1    4    3    3
 -5  SXY         1    4    1    2
 -5  SYZ         1    4    2    3
 -5  SZX         1    4    3    1
 -1         1-2.97016E+00-2.97015E+00-6.92997E+00 7.39619E-06 8.80067E-01 4.37334E-01
 -1         2-1.23113E+00-1.23113E+00-2.87251E+00-2.29249E-07 2.79926E-01 1.62793E-01
 -1         3 8.08780E-01 1.35803E+00-1.48377E+00 2.74579E-01-8.79413E-01 1.62788E-01
 -1         4 9.91852E-01 4.42777E-01-4.71749E+00 2.74585E-01-2.79219E-01 4.37342E-01
 -1         5-2.97016E+00-2.97015E+00-6.92997E+00-7.39619E-06 8.80067E-01-4.37334E-01
 -1         6-1.23113E+00-1.23113E+00-2.87251E+00 2.29249E-07 2.79926E-01-1.62793E-01
 -1         7 8.08780E-01 1.35803E+00-1.48377E+00-2.74579E-01-8.79413E-01-1.62788E-01
 -1         8 9.91852E-01 4.42777E-01-4.71749E+00-2.74585E-01-2.79219E-01-4.37342E-01
 -1         9-2.03646E-02-1.47012E-02-1.00032E+02-1.76034E-11 1.84138E-02-3.24754E-11
 -1        10-2.69783E-03 8.38574E-03-9.99964E+01 2.71029E-03 9.03828E-03 1.88671E-03
 -1        11-2.14637E-03-2.72669E-02-1.00007E+02-2.02671E-02-8.33987E-03-2.67590E-03
 -1        12 1.46529E-02 3.00670E-02-1.00008E+02 1.21698E-11 5.59794E-03-4.40253E-11
 -1        13-2.69783E-03 8.38574E-03-9.99964E+01-2.71029E-03 9.03828E-03-1.88671E-03
 -1        14 2.46544E-02 4.11591E-02-9.99381E+01 9.62634E-13 3.20974E-02-3.68944E-11
 -1        15-9.26021E-03-7.49144E-02-9.99830E+01 6.61176E-12 1.01570E-02-4.84559E-11
 -1        16-2.14637E-03-2.72669E-02-1.00007E+02 2.02671E-02-8.33987E-03 2.67590E-03
 -3
    1PSTEP                       111           8           5          
  100CL  137 4.331718750          16                     0   37           1
 -4  CONTACT     6    1
 -5  COPEN       1    4    1    1
 -5  CSLIP1      1    4    2    2
 -5  CSLIP2      1    4    3    3
 -5  CPRESS      1    4    1    2
 -5  CSHEAR1     1    4    2    3
 -5  CSHEAR2     1    4    3    1
 -1         1 0.00000E+00 0.00000E+00 0.00000E+00 0.00000E+00 0.00000E+00 0.00000E+00
 -1         2 0.00000E+00 0.00000E+00 0.00000E+00 0.00000E+00 0.00000E+00 0.00000E+00
 -1         3 0.00000E+00 0.00000E+00 0.00000E+00 0.00000E+00 0.00000E+00 0.00000E+00
 -1         4 0.00000E+00 0.00000E+00 0.00000E+00 0.00000E+00 0.00000E+00 0.00000E+00
 -1         5 0.00000E+00 0.00000E+00 0.00000E+00 0.00000E+00 0.00000E+00 0.00000E+00
 -1         6 0.00000E+00 0.00000E+00 0.00000E+00 0.00000E+00 0.00000E+00 0.00000E+00
 -1         7 0.00000E+00 0.00000E+00 0.00000E+00 0.00000E+00 0.00000E+00 0.00000E+00
 -1         8 0.00000E+00 0.00000E+00 0.00000E+00 0.00000E+00 0.00000E+00 0.00000E+00
 -1         9-1.00056E-05-4.39673E-13 1.00025E-01 1.00056E+02 2.12224E-11 9.89910E-03
 -1        10-1.00018E-05 1.52150E-05 1.00009E-01 1.00018E+02-1.61664E-06 9.89524E-03
 -1        11 0.00000E+00 0.00000E+00 0.00000E+00 0.00000E+00 0.00000E+00 0.00000E+00
 -1        12 0.00000E+00 0.00000E+00 0.00000E+00 0.00000E+00 0.00000E+00 0.00000E+00
 -1        13-1.00018E-05-1.52150E-05 1.00009E-01 1.00018E+02 1.61662E-06 9.89524E-03
 -1        14-9.99218E-06-4.32137E-13 9.99940E-02 9.99218E+01 1.07642E-11 9.88564E-03
 -1        15 0.00000E+00 0.00000E+00 0.00000E+00 0.00000E+00 0.00000E+00 0.00000E+00
 -1        16 0.00000E+00 0.00000E+00 0.00000E+00 0.00000E+00 0.00000E+00 0.00000E+00
 -3
    1PSTEP                       112           9           5          
  100CL  138 4.502578125          16                     0   38           1
 -4  DISP        4    1
 -5  D1          1    2    1    0
 -5  D2          1    2    2    0
 -5  D3          1    2    3    0
 -5  ALL         1    2    0    0    1ALL
 -1         1 0.00000E+00 0.00000E+00 0.00000E+00
 -1         2 0.00000E+00 0.00000E+00 0.00000E+00
 -1         3 2.01557E-06 3.46577E-06-1.01619E-05
 -1         4 5.41508E-06 1.08969E-05-2.45157E-05
 -1         5 0.00000E+00 0.00000E+00 0.00000E+00
 -1         6 0.00000E+00 0.00000E+00 0.00000E+00
 -1         7-2.01557E-06 3.46577E-06-1.01619E-05
 -1         8-5.41508E-06 1.08969E-05-2.45157E-05
 -1         9-1.18256E-13 1.00037E-01-3.08112E-05
 -1        10 2.02135E-05 1.00017E-01-2.87761E-05
 -1        11 2.02232E-05 1.00020E-01-1.24112E-04
 -1        12 0.00000E+00 1.00040E-01-1.26169E-04
 -1        13-2.02135E-05 1.00017E-01-2.87761E-05
 -1        14-1.18239E-13 9.99970E-02-2.67339E-05
 -1        15 0.00000E+00 1.00000E-01-1.22031E-04
 -1        16-2.02232E-05 1.00020E-01-1.24112E-04
 -3
    1PSTEP                       113           9           5          
  100CL  138 4.502578125          16                     0   38           1
 -4  STRESS      6    1
 -5  SXX         1    4    1    1
 -5  SYY         1    4    2    2
 -5  SZZ         1    4    3    3
 -5  SXY         1    4    1    2
 -5  SYZ         1    4    2    3
 -5  SZX         1    4    3    1
 -1         1-2.97016E+00-2.97015E+00-6.92997E+00 7.39619E-06 8.80067E-01 4.37334E-01
 -1         2-1.23113E+00-1.23113E+00-2.87251E+00-2.29249E-07 2.79926E-01 1.62793E-01
 -1         3 8.08780E-01 1.35803E+00-1.48377E+00 2.74579E-01-8.79413E-01 1.62788E-01
 -1         4 9.91852E-01 4.42777E-01-4.71749E+00 2.74585E-01-2.79219E-01 4.37342E-01
 -1         5-2.97016E+00-2.97015E+00-6.92997E+00-7.39619E-06 8.80067E-01-4.37334E-01
 -1         6-1.23113E+00-1.23113E+00-2.87251E+00 2.29249E-07 2.79926E-01-1.62793E-01
 -1         7 8.08780E-01 1.35803E+00-1.48377E+00-2.74579E-01-8.79413E-01-1.62788E-01
 -1         8 9.91852E-01 4.42777E-01-4.71749E+00-2.74585E-01-2.79219E-01-4.37342E-01
 -1         9-2.03646E-02-1.47012E-02-1.00032E+02-3.12512E-12 1.84138E-02-2.99191E-11
 -1        10-2.69783E-03 8.38574E-03-9.99964E+01 2.71029E-03 9.03828E-03 1.88671E-03
 -1        11-2.14637E-03-2.72669E-02-1.00007E+02-2.02671E-02-8.33987E-03-2.67590E-03
 -1        12 1.46529E-02 3.00670E-02-1.00008E+02 8.77787E-12 5.59794E-03-4.19164E-11
 -1        13-2.69783E-03 8.38574E-03-9.99964E+01-2.71029E-03 9.03828E-03-1.88671E-03
 -1        14 2.46544E-02 4.11591E-02-9.99381E+01 8.83928E-12 3.20974E-02-3.68513E-11
 -1        15-9.26021E-03-7.49144E-02-9.99830E+01-9.73379E-12 1.01570E-02-4.88445E-11
 -1        16-2.14637E-03-2.72669E-02-1.00007E+02 2.02671E-02-8.33987E-03 2.67590E-03
 -3
    1PSTEP                       114           9           5          
  100CL  138 4.502578125          16                     0   38           1
 -4  CONTACT     6    1
 -5  COPEN       1    4    1    1
 -5  CSLIP1      1    4    2    2
 -5  CSLIP2      1    4    3    3
 -5  CPRESS      1    4    1    2
 -5  CSHEAR1     1    4    2    3
 -5  CSHEAR2     1    4    3    1
 -1         1 0.00000E+00 0.00000E+00 0.00000E+00 0.00000E+00 0.00000E+00 0.00000E+00
 -1         2 0.00000E+00 0.00000E+00 0.00000E+00 0.00000E+00 0.00000E+00 0.00000E+00
 -1         3 0.00000E+00 0.00000E+00 0.00000E+00 0.00000E+00 0.00000E+00 0.00000E+00
 -1         4 0.00000E+00 0.00000E+00 0.00000E+00 0.00000E+00 0.00000E+00 0.00000E+00
 -1         5 0.00000E+00 0.00000E+00 0.00000E+00 0.00000E+00 0.00000E+00 0.00000E+00
 -1         6 0.00000E+00 0.00000E+00 0.00000E+00 0.00000E+00 0.00000E+00 0.00000E+00
 -1         7 0.00000E+00 0.00000E+00 0.00000E+00 0.00000E+00 0.00000E+00 0.00000E+00
 -1         8 0.00000E+00 0.00000E+00 0.00000E+00 0.00000E+00 0.00000E+00 0.00000E+00
 -1         9-1.00056E-05-4.39716E-13 1.00025E-01 1.00056E+02 2.11802E-11 9.89910E-03
 -1        10-1.00018E-05 1.52150E-05 1.00009E-01 1.00018E+02-1.61664E-06 9.89524E-03
 -1        11 0.00000E+00 0.00000E+00 0.00000E+00 0.00000E+00 0.00000E+00 0.00000E+00
 -1        12 0.00000E+00 0.00000E+00 0.00000E+00 0.00000E+00 0.00000E+00 0.00000E+00
 -1        13-1.00018E-05-1.52150E-05 1.00009E-01 1.00018E+02 1.61662E-06 9.89524E-03
 -1        14-9.99218E-06-4.32173E-13 9.99940E-02 9.99218E+01 1.07282E-11 9.88564E-03
 -1        15 0.00000E+00 0.00000E+00 0.00000E+00 0.00000E+00 0.00000E+00 0.00000E+00
 -1        16 0.00000E+00 0.00000E+00 0.00000E+00 0.00000E+00 0.00000E+00 0.00000E+00
 -3
    1PSTEP                       115          10           5          
  100CL  139 4.758867187          16                     0   39           1
 -4  DISP        4    1
 -5  D1          1    2    1    0
 -5  D2          1    2    2    0
 -5  D3          1    2    3    0
 -5  ALL         1    2    0    0    1ALL
 -1         1 0.00000E+00 0.00000E+00 0.00000E+00
 -1         2 0.00000E+00 0.00000E+00 0.00000E+00
 -1         3 2.01557E-06 3.46577E-06-1.01619E-05
 -1         4 5.41508E-06 1.08969E-05-2.45157E-05
 -1         5 0.00000E+00 0.00000E+00 0.00000E+00
 -1         6 0.00000E+00 0.00000E+00 0.00000E+00
 -1         7-2.01557E-06 3.46577E-06-1.01619E-05
 -1         8-5.41508E-06 1.08969E-05-2.45157E-05
 -1         9-1.18208E-13 1.00037E-01-3.08112E-05
 -1        10 2.02135E-05 1.00017E-01-2.87761E-05
 -1        11 2.02232E-05 1.00020E-01-1.24112E-04
 -1        12 0.00000E+00 1.00040E-01-1.26169E-04
 -1        13-2.02135E-05 1.00017E-01-2.87761E-05
 -1        14-1.18200E-13 9.99970E-02-2.67339E-05
 -1        15 0.00000E+00 1.00000E-01-1.22031E-04
 -1        16-2.02232E-05 1.00020E-01-1.24112E-04
 -3
    1PSTEP                       116          10           5          
  100CL  139 4.758867187          16                     0   39           1
 -4  STRESS      6    1
 -5  SXX         1    4    1    1
 -5  SYY         1    4    2    2
 -5  SZZ         1    4    3    3
 -5  SXY         1    4    1    2
 -5  SYZ         1    4    2    3
 -5  SZX         1    4    3    1
 -1         1-2.97016E+00-2.97015E+00-6.92997E+00 7.39619E-06 8.80067E-01 4.37334E-01
 -1         2-1.23113E+00-1.23113E+00-2.87251E+00-2.29249E-07 2.79926E-01 1.62793E-01
 -1         3 8.08780E-01 1.35803E+00-1.48377E+00 2.74579E-01-8.79413E-01 1.62788E-01
 -1         4 9.91852E-01 4.42777E-01-4.71749E+00 2.74585E-01-2.79219E-01 4.37342E-01
 -1         5-2.97016E+00-2.97015E+00-6.92997E+00-7.39619E-06 8.80067E-01-4.37334E-01
 -1         6-1.23113E+00-1.23113E+00-2.87251E+00 2.29249E-07 2.79926E-01-1.62793E-01
 -1         7 8.08780E-01 1.35803E+00-1.48377E+00-2.74579E-01-8.79413E-01-1.62788E-01
 -1         8 9.91852E-01 4.42777E-01-4.71749E+00-2.74585E-01-2.79219E-01-4.37342E-01
 -1         9-2.03646E-02-1.47012E-02-1.00032E+02-1.98567E-11 1.84138E-02-3.17056E-11
 -1        10-2.69783E-03 8.38574E-03-9.99964E+01 2.71029E-03 9.03828E-03 1.88671E-03
 -1        11-2.14637E-03-2.72669E-02-1.00007E+02-2.02671E-02-8.33987E-03-2.67590E-03
 -1        12 1.46529E-02 3.00670E-02-1.00008E+02 1.50387E-11 5.59794E-03-4.41395E-11
 -1        13-2.69783E-03 8.38574E-03-9.99964E+01-2.71029E-03 9.03828E-03-1.88671E-03
 -1        14 2.46544E-02 4.11591E-02-9.99381E+01 2.21329E-13 3.20974E-02-3.48954E-11
 -1        15-9.26021E-03-7.49144E-02-9.99830E+01-7.78656E-12 1.01570E-02-4.73417E-11
 -1        16-2.14637E-03-2.72669E-02-1.00007E+02 2.02671E-02-8.33987E-03 2.67590E-03
 -3
    1PSTEP                       117          10           5          
  100CL  139 4.758867187          16                     0   39           1
 -4  CONTACT     6    1
 -5  COPEN       1    4    1    1
 -5  CSLIP1      1    4    2    2
 -5  CSLIP2      1    4    3    3
 -5  CPRESS      1    4    1    2
 -5  CSHEAR1     1    4    2    3
 -5  CSHEAR2     1    4    3    1
 -1         1 0.00000E+00 0.00000E+00 0.00000E+00 0.00000E+00 0.00000E+00 0.00000E+00
 -1         2 0.00000E+00 0.00000E+00 0.00000E+00 0.00000E+00 0.00000E+00 0.00000E+00
 -1         3 0.00000E+00 0.00000E+00 0.00000E+00 0.00000E+00 0.00000E+00 0.00000E+00
 -1         4 0.00000E+00 0.00000E+00 0.00000E+00 0.00000E+00 0.00000E+00 0.00000E+00
 -1         5 0.00000E+00 0.00000E+00 0.00000E+00 0.00000E+00 0.00000E+00 0.00000E+00
 -1         6 0.00000E+00 0.00000E+00 0.00000E+00 0.00000E+00 0.00000E+00 0.00000E+00
 -1         7 0.00000E+00 0.00000E+00 0.00000E+00 0.00000E+00 0.00000E+00 0.00000E+00
 -1         8 0.00000E+00 0.00000E+00 0.00000E+00 0.00000E+00 0.00000E+00 0.00000E+00
 -1         9-1.00056E-05-4.39668E-13 1.00025E-01 1.00056E+02 2.12282E-11 9.89910E-03
 -1        10-1.00018E-05 1.52150E-05 1.00009E-01 1.00018E+02-1.61664E-06 9.89524E-03
 -1        11 0.00000E+00 0.00000E+00 0.00000E+00 0.00000E+00 0.00000E+00 0.00000E+00
 -1        12 0.00000E+00 0.00000E+00 0.00000E+00 0.00000E+00 0.00000E+00 0.00000E+00
 -1        13-1.00018E-05-1.52150E-05 1.00009E-01 1.00018E+02 1.61662E-06 9.89524E-03
 -1        14-9.99218E-06-4.32134E-13 9.99940E-02 9.99218E+01 1.07670E-11 9.88564E-03
 -1        15 0.00000E+00 0.00000E+00 0.00000E+00 0.00000E+00 0.00000E+00 0.00000E+00
 -1        16 0.00000E+00 0.00000E+00 0.00000E+00 0.00000E+00 0.00000E+00 0.00000E+00
 -3
    1PSTEP                       118          11           5          
  100CL  140 5.000000000          16                     0   40           1
 -4  DISP        4    1
 -5  D1          1    2    1    0
 -5  D2          1    2    2    0
 -5  D3          1    2    3    0
 -5  ALL         1    2    0    0    1ALL
 -1         1 0.00000E+00 0.00000E+00 0.00000E+00
 -1         2 0.00000E+00 0.00000E+00 0.00000E+00
 -1         3 2.01557E-06 3.46577E-06-1.01619E-05
 -1         4 5.41508E-06 1.08969E-05-2.45157E-05
 -1         5 0.00000E+00 0.00000E+00 0.00000E+00
 -1         6 0.00000E+00 0.00000E+00 0.00000E+00
 -1         7-2.01557E-06 3.46577E-06-1.01619E-05
 -1         8-5.41508E-06 1.08969E-05-2.45157E-05
 -1         9-1.18259E-13 1.00037E-01-3.08112E-05
 -1        10 2.02135E-05 1.00017E-01-2.87761E-05
 -1        11 2.02232E-05 1.00020E-01-1.24112E-04
 -1        12 0.00000E+00 1.00040E-01-1.26169E-04
 -1        13-2.02135E-05 1.00017E-01-2.87761E-05
 -1        14-1.18245E-13 9.99970E-02-2.67339E-05
 -1        15 0.00000E+00 1.00000E-01-1.22031E-04
 -1        16-2.02232E-05 1.00020E-01-1.24112E-04
 -3
    1PSTEP                       119          11           5          
  100CL  140 5.000000000          16                     0   40           1
 -4  STRESS      6    1
 -5  SXX         1    4    1    1
 -5  SYY         1    4    2    2
 -5  SZZ         1    4    3    3
 -5  SXY         1    4    1    2
 -5  SYZ         1    4    2    3
 -5  SZX         1    4    3    1
 -1         1-2.97016E+00-2.97015E+00-6.92997E+00 7.39619E-06 8.80067E-01 4.37334E-01
 -1         2-1.23113E+00-1.23113E+00-2.87251E+00-2.29249E-07 2.79926E-01 1.62793E-01
 -1         3 8.08780E-01 1.35803E+00-1.48377E+00 2.74579E-01-8.79413E-01 1.62788E-01
 -1         4 9.91852E-01 4.42777E-01-4.71749E+00 2.74585E-01-2.79219E-01 4.37342E-01
 -1         5-2.97016E+00-2.97015E+00-6.92997E+00-7.39619E-06 8.80067E-01-4.37334E-01
 -1         6-1.23113E+00-1.23113E+00-2.87251E+00 2.29249E-07 2.79926E-01-1.62793E-01
 -1         7 8.08780E-01 1.35803E+00-1.48377E+00-2.74579E-01-8.79413E-01-1.62788E-01
 -1         8 9.91852E-01 4.42777E-01-4.71749E+00-2.74585E-01-2.79219E-01-4.37342E-01
 -1         9-2.03646E-02-1.47012E-02-1.00032E+02-1.03062E-13 1.84138E-02-2.98387E-11
 -1        10-2.69783E-03 8.38574E-03-9.99964E+01 2.71029E-03 9.03828E-03 1.88671E-03
 -1        11-2.14637E-03-2.72669E-02-1.00007E+02-2.02671E-02-8.33987E-03-2.67590E-03
 -1        12 1.46529E-02 3.00670E-02-1.00008E+02 1.93628E-12 5.59794E-03-4.18285E-11
 -1        13-2.69783E-03 8.38574E-03-9.99964E+01-2.71029E-03 9.03828E-03-1.88671E-03
 -1        14 2.46544E-02 4.11591E-02-9.99381E+01 1.13536E-11 3.20974E-02-3.53494E-11
 -1        15-9.26021E-03-7.49144E-02-9.99830E+01-8.10688E-12 1.01570E-02-4.73416E-11
 -1        16-2.14637E-03-2.72669E-02-1.00007E+02 2.02671E-02-8.33987E-03 2.67590E-03
 -3
    1PSTEP                       120          11           5          
  100CL  140 5.000000000          16                     0   40           1
 -4  CONTACT     6    1
 -5  COPEN       1    4    1    1
 -5  CSLIP1      1    4    2    2
 -5  CSLIP2      1    4    3    3
 -5  CPRESS      1    4    1    2
 -5  CSHEAR1     1    4    2    3
 -5  CSHEAR2     1    4    3    1
 -1         1 0.00000E+00 0.00000E+00 0.00000E+00 0.00000E+00 0.00000E+00 0.00000E+00
 -1         2 0.00000E+00 0.00000E+00 0.00000E+00 0.00000E+00 0.00000E+00 0.00000E+00
 -1         3 0.00000E+00 0.00000E+00 0.00000E+00 0.00000E+00 0.00000E+00 0.00000E+00
 -1         4 0.00000E+00 0.00000E+00 0.00000E+00 0.00000E+00 0.00000E+00 0.00000E+00
 -1         5 0.00000E+00 0.00000E+00 0.00000E+00 0.00000E+00 0.00000E+00 0.00000E+00
 -1         6 0.00000E+00 0.00000E+00 0.00000E+00 0.00000E+00 0.00000E+00 0.00000E+00
 -1         7 0.00000E+00 0.00000E+00 0.00000E+00 0.00000E+00 0.00000E+00 0.00000E+00
 -1         8 0.00000E+00 0.00000E+00 0.00000E+00 0.00000E+00 0.00000E+00 0.00000E+00
 -1         9-1.00056E-05-4.39718E-13 1.00025E-01 1.00056E+02 2.11776E-11 9.89910E-03
 -1        10-1.00018E-05 1.52150E-05 1.00009E-01 1.00018E+02-1.61664E-06 9.89524E-03
 -1        11 0.00000E+00 0.00000E+00 0.00000E+00 0.00000E+00 0.00000E+00 0.00000E+00
 -1        12 0.00000E+00 0.00000E+00 0.00000E+00 0.00000E+00 0.00000E+00 0.00000E+00
 -1        13-1.00018E-05-1.52150E-05 1.00009E-01 1.00018E+02 1.61662E-06 9.89524E-03
 -1        14-9.99218E-06-4.32179E-13 9.99940E-02 9.99218E+01 1.07222E-11 9.88564E-03
 -1        15 0.00000E+00 0.00000E+00 0.00000E+00 0.00000E+00 0.00000E+00 0.00000E+00
 -1        16 0.00000E+00 0.00000E+00 0.00000E+00 0.00000E+00 0.00000E+00 0.00000E+00
 -3
 9999
