    1C
    1UUSER                                                              
    1UDATE              25.january.2020                                 
    1UTIME              14:51:59                                        
    1UHOST                                                              
    1UPGM               CalculiX                                        
    1UVERSION           Version 2.16                             
    1UCOMPILETIME       Tue  7 Jan 19:57:43 CET 2020                    
    1UDIR                                                               
    1UDBN                                                               
    1UMAT    1EL                                                        
    2C                            36                                     1
 -1        10 0.00000E+00 0.00000E+00-5.00000E-01
 -1        11 0.00000E+00 0.00000E+00 0.00000E+00
 -1        12 0.00000E+00 0.00000E+00 5.00000E-01
 -1        13 1.00000E+00 0.00000E+00-5.00000E-01
 -1        14 1.00000E+00 0.00000E+00 0.00000E+00
 -1        15 1.00000E+00 0.00000E+00 5.00000E-01
 -1        16 1.00000E+00 1.00000E+00-5.00000E-01
 -1        17 1.00000E+00 1.00000E+00 0.00000E+00
 -1        18 1.00000E+00 1.00000E+00 5.00000E-01
 -1        19 9.64645E-01 9.64645E-01 5.00000E-02
 -1        20 1.03536E+00 1.03536E+00 5.00000E-02
 -1        21 1.03536E+00 1.03536E+00-5.00000E-02
 -1        22 9.64645E-01 9.64645E-01-5.00000E-02
 -1        28 0.00000E+00 1.00000E+00-5.00000E-01
 -1        29 0.00000E+00 1.00000E+00 0.00000E+00
 -1        30 0.00000E+00 1.00000E+00 5.00000E-01
 -1        31 3.53553E-02 9.64645E-01-5.00000E-02
 -1        32-3.53553E-02 1.03536E+00-5.00000E-02
 -1        33-3.53553E-02 1.03536E+00 5.00000E-02
 -1        34 3.53553E-02 9.64645E-01 5.00000E-02
 -1        40 5.00000E-01 0.00000E+00-5.00000E-01
 -1        42 5.00000E-01 0.00000E+00 5.00000E-01
 -1        43 1.00000E+00 5.00000E-01-5.00000E-01
 -1        45 1.00000E+00 5.00000E-01 5.00000E-01
 -1        46 5.00000E-01 1.00000E+00-5.00000E-01
 -1        48 5.00000E-01 1.00000E+00 5.00000E-01
 -1        49 0.00000E+00 5.00000E-01-5.00000E-01
 -1        51 0.00000E+00 5.00000E-01 5.00000E-01
 -1        52 4.64645E-01 1.46464E+00 5.00000E-02
 -1        53 5.35355E-01 1.53536E+00 5.00000E-02
 -1        54 5.35355E-01 1.53536E+00-5.00000E-02
 -1        55 4.64645E-01 1.46464E+00-5.00000E-02
 -1        61 5.35355E-01 1.46464E+00-5.00000E-02
 -1        62 4.64645E-01 1.53536E+00-5.00000E-02
 -1        63 4.64645E-01 1.53536E+00 5.00000E-02
 -1        64 5.35355E-01 1.46464E+00 5.00000E-02
 -3
    3C                             3                                     1
 -1         1    4    0    1
 -2        10        13        16        28        12        15        18        30        40        43
 -2        46        49        11        14        17        29        42        45        48        51
 -1         3    1    0    1
 -2        19        52        53        20        22        55        54        21
 -1         4    1    0    1
 -2        31        61        62        32        34        64        63        33
 -3
    1PSTEP                         1           1           1          
  100CL  101 1.000000000          36                     0    1           1
 -4  DISP        4    1
 -5  D1          1    2    1    0
 -5  D2          1    2    2    0
 -5  D3          1    2    3    0
 -5  ALL         1    2    0    0    1ALL
 -1        10 0.00000E+00 0.00000E+00 0.00000E+00
 -1        11 0.00000E+00 0.00000E+00 0.00000E+00
 -1        12 0.00000E+00 0.00000E+00 0.00000E+00
 -1        13-1.66582E-06 0.00000E+00 0.00000E+00
 -1        14-1.66582E-06 0.00000E+00 0.00000E+00
 -1        15-1.66582E-06 0.00000E+00 0.00000E+00
 -1        16-1.13417E-05 1.15118E-05 0.00000E+00
 -1        17-1.13417E-05 1.15118E-05 0.00000E+00
 -1        18-1.13417E-05 1.15118E-05 0.00000E+00
 -1        19-2.04181E-05 2.77311E-05-5.05076E-06
 -1        20-2.26529E-06-4.70743E-06-5.05076E-06
 -1        21-2.26529E-06-4.70743E-06 5.05076E-06
 -1        22-2.04181E-05 2.77311E-05 5.05076E-06
 -1        28 9.67588E-06 1.15118E-05 0.00000E+00
 -1        29 9.67588E-06 1.15118E-05 0.00000E+00
 -1        30 9.67588E-06 1.15118E-05 0.00000E+00
 -1        31 1.87523E-05 2.77311E-05 5.05076E-06
 -1        32 5.99463E-07-4.70743E-06 5.05076E-06
 -1        33 5.99463E-07-4.70743E-06-5.05076E-06
 -1        34 1.87523E-05 2.77311E-05-5.05076E-06
 -1        40-8.32911E-07 0.00000E+00 0.00000E+00
 -1        42-8.32911E-07 0.00000E+00 0.00000E+00
 -1        43-1.01534E-06 4.71922E-06 0.00000E+00
 -1        45-1.01534E-06 4.71922E-06 0.00000E+00
 -1        46-8.32911E-07 2.13693E-06 0.00000E+00
 -1        48-8.32911E-07 2.13693E-06 0.00000E+00
 -1        49-6.50479E-07 4.71922E-06 0.00000E+00
 -1        51-6.50479E-07 4.71922E-06 0.00000E+00
 -1        52-9.90933E-06 3.74957E-04-5.05076E-06
 -1        53 8.24351E-06 3.42519E-04-5.05076E-06
 -1        54 8.24351E-06 3.42519E-04 5.05076E-06
 -1        55-9.90933E-06 3.74957E-04 5.05076E-06
 -1        61 8.24351E-06 3.74957E-04 5.05076E-06
 -1        62-9.90933E-06 3.42519E-04 5.05076E-06
 -1        63-9.90933E-06 3.42519E-04-5.05076E-06
 -1        64 8.24351E-06 3.74957E-04-5.05076E-06
 -3
    1PSTEP                         2           1           1          
  100CL  101 1.000000000          36                     0    1           1
 -4  STRESS      6    1
 -5  SXX         1    4    1    1
 -5  SYY         1    4    2    2
 -5  SZZ         1    4    3    3
 -5  SXY         1    4    1    2
 -5  SYZ         1    4    2    3
 -5  SZX         1    4    3    1
 -1        10 4.21423E-01 1.88018E+00 6.90480E-01-9.91674E-01-4.16373E-16-3.40356E-16
 -1        11 4.21366E-01 1.88027E+00 6.90492E-01-9.91674E-01-3.91901E-16-1.47243E-17
 -1        12 4.21423E-01 1.88018E+00 6.90480E-01-9.91674E-01 3.38500E-16 3.58144E-16
 -1        13 4.21423E-01 1.88018E+00 6.90480E-01 9.91674E-01-3.01473E-16-3.84599E-17
 -1        14 4.21366E-01 1.88027E+00 6.90492E-01 9.91674E-01-5.35162E-17 9.77850E-17
 -1        15 4.21423E-01 1.88018E+00 6.90480E-01 9.91674E-01 2.24760E-16-1.15760E-16
 -1        16-4.04439E+00 1.88018E+00-6.49263E-01 4.74124E-01-3.04444E-15 3.39860E-15
 -1        17-4.04444E+00 1.88027E+00-6.49251E-01 4.74124E-01 3.82757E-16-1.49545E-17
 -1        18-4.04439E+00 1.88018E+00-6.49263E-01 4.74124E-01 3.03158E-15-3.39047E-15
 -1        19 3.53539E+01 3.53539E+01 2.66777E-13-3.53539E+01-2.29928E-13-9.60892E-15
 -1        20 3.53539E+01 3.53539E+01 8.58135E-13-3.53539E+01 4.92747E-13 1.27618E-13
 -1        21 3.53539E+01 3.53539E+01 2.55193E-13-3.53539E+01 4.35348E-13-4.39282E-14
 -1        22 3.53539E+01 3.53539E+01-6.51238E-13-3.53539E+01-3.77058E-13-1.52572E-13
 -1        28-4.04439E+00 1.88018E+00-6.49263E-01-4.74124E-01 7.79838E-16-8.40779E-16
 -1        29-4.04444E+00 1.88027E+00-6.49251E-01-4.74124E-01 8.35672E-17-7.71340E-17
 -1        30-4.04439E+00 1.88018E+00-6.49263E-01-4.74124E-01-8.46125E-16 7.63766E-16
 -1        31 3.53539E+01 3.53539E+01-6.95026E-13 3.53539E+01-4.50203E-13-3.64602E-13
 -1        32 3.53539E+01 3.53539E+01 6.26366E-14 3.53539E+01 1.76993E-13-7.12785E-14
 -1        33 3.53539E+01 3.53539E+01 4.00854E-13 3.53539E+01 1.50875E-13-1.33310E-13
 -1        34 3.53539E+01 3.53539E+01-9.27288E-14 3.53539E+01-3.15514E-13-4.03686E-13
 -1        40-7.14450E-01-7.69963E-01-4.45324E-01 3.22312E-14 3.11341E-16 1.17273E-16
 -1        42-7.14450E-01-7.69963E-01-4.45324E-01 3.25434E-14 4.76317E-18-2.29757E-16
 -1        43 1.29155E+00 3.21017E+00 1.35052E+00 7.32899E-01-1.10995E-15-5.55639E-18
 -1        45 1.29155E+00 3.21017E+00 1.35052E+00 7.32899E-01 9.28221E-16-3.18380E-16
 -1        46-5.18026E+00-7.69963E-01-1.78507E+00 3.20438E-14-1.82701E-15 6.44381E-16
 -1        48-5.18026E+00-7.69963E-01-1.78507E+00 3.24463E-14 6.02990E-16-4.43825E-16
 -1        49 1.29155E+00 3.21017E+00 1.35052E+00-7.32899E-01 5.94250E-16 1.75328E-16
 -1        51 1.29155E+00 3.21017E+00 1.35052E+00-7.32899E-01 2.37894E-16-1.37463E-16
 -1        52 3.53539E+01 3.53539E+01-2.46312E-13-3.53539E+01 5.43045E-13-1.37352E-13
 -1        53 3.53539E+01 3.53539E+01-9.06607E-13-3.53539E+01-7.06901E-13 1.93721E-13
 -1        54 3.53539E+01 3.53539E+01 2.98699E-14-3.53539E+01-5.37501E-13 2.92222E-13
 -1        55 3.53539E+01 3.53539E+01 5.04312E-13-3.53539E+01 7.21005E-13-2.26923E-15
 -1        61 3.53539E+01 3.53539E+01-1.00651E-13 3.53539E+01 4.26201E-14 2.50210E-13
 -1        62 3.53539E+01 3.53539E+01 5.18759E-14 3.53539E+01-7.75946E-13-4.22119E-13
 -1        63 3.53539E+01 3.53539E+01-2.30440E-13 3.53539E+01-7.53420E-13-3.26925E-13
 -1        64 3.53539E+01 3.53539E+01 1.94934E-13 3.53539E+01-1.48459E-13 3.60529E-13
 -3
    1PSTEP                         3           1           1          
  100CL  101 1.000000000          36                     0    1           1
 -4  FORC        4    1
 -5  F1          1    2    1    0
 -5  F2          1    2    2    0
 -5  F3          1    2    3    0
 -5  ALL         1    2    0    0    1ALL
 -1        10-5.12213E-15 1.60965E-01-1.79458E-03
 -1        11-1.99975E-14-3.33333E-01 1.95156E-17
 -1        12-5.10750E-15 1.60965E-01 1.79458E-03
 -1        13 4.33245E-17 1.60965E-01-1.79458E-03
 -1        14 1.77809E-17-3.33333E-01 1.47451E-17
 -1        15 7.46367E-17 1.60965E-01 1.79458E-03
 -1        16-8.33333E-02 8.33333E-02 3.54203E-02
 -1        17-3.33333E-01 3.33333E-01 3.46945E-17
 -1        18-8.33333E-02 8.33333E-02-3.54203E-02
 -1        19 1.25000E-01-1.25000E-01-8.62345E-16
 -1        20 1.25000E-01-1.25000E-01 3.33503E-15
 -1        21 1.25000E-01-1.25000E-01-1.32207E-15
 -1        22 1.25000E-01-1.25000E-01-1.21507E-15
 -1        28 8.33333E-02 8.33333E-02 3.54203E-02
 -1        29 3.33333E-01 3.33333E-01-2.77556E-17
 -1        30 8.33333E-02 8.33333E-02-3.54203E-02
 -1        31-1.25000E-01-1.25000E-01 3.25848E-15
 -1        32-1.25000E-01-1.25000E-01 3.14508E-16
 -1        33-1.25000E-01-1.25000E-01 3.69304E-16
 -1        34-1.25000E-01-1.25000E-01-1.12768E-15
 -1        40-1.16222E-17-4.88597E-01-7.39496E-02
 -1        42-2.22049E-17-4.88597E-01 7.39496E-02
 -1        43-9.18532E-17 4.59615E-16-1.09106E-01
 -1        45-1.39299E-16 5.25708E-16 1.09106E-01
 -1        46-1.83685E-16-5.45142E-17 7.49101E-02
 -1        48-1.28457E-16-8.31795E-17-7.49101E-02
 -1        49 2.19855E-16-1.97144E-16-1.09106E-01
 -1        51 1.72952E-16-1.99674E-16 1.09106E-01
 -1        52-1.25000E-01 1.25000E-01-1.02319E-15
 -1        53-1.25000E-01 1.25000E-01-4.76038E-16
 -1        54-1.25000E-01 1.25000E-01 2.26691E-15
 -1        55-1.25000E-01 1.25000E-01-7.03226E-16
 -1        61 1.25000E-01 1.25000E-01 2.82320E-15
 -1        62 1.25000E-01 1.25000E-01-2.78497E-15
 -1        63 1.25000E-01 1.25000E-01-3.91079E-15
 -1        64 1.25000E-01 1.25000E-01 1.05796E-15
 -3
 9999
