    1C
    1UUSER                                                              
    1UDATE              25.january.2020                                 
    1UTIME              14:52:01                                        
    1UHOST                                                              
    1UPGM               CalculiX                                        
    1UVERSION           Version 2.16                             
    1UCOMPILETIME       Tue  7 Jan 19:57:43 CET 2020                    
    1UDIR                                                               
    1UDBN                                                               
    1UMAT    1EL                                                        
    2C                            51                                     1
 -1        22-7.45058E-09-7.45058E-09-5.00000E-03
 -1        23-7.45058E-09-7.45058E-09 0.00000E+00
 -1        24-7.45058E-09-7.45058E-09 5.00000E-03
 -1        25 5.00000E-01-7.45058E-09-1.50000E-02
 -1        26 5.00000E-01-7.45058E-09 0.00000E+00
 -1        27 5.00000E-01-7.45058E-09 1.50000E-02
 -1        28 5.00000E-01 5.00000E-01-1.50000E-02
 -1        29 5.00000E-01 5.00000E-01 0.00000E+00
 -1        30 5.00000E-01 5.00000E-01 1.50000E-02
 -1        31-7.45058E-09 5.00000E-01-5.00000E-03
 -1        32-7.45058E-09 5.00000E-01 0.00000E+00
 -1        33-7.45058E-09 5.00000E-01 5.00000E-03
 -1        34 2.50000E-01-7.45058E-09-1.00000E-02
 -1        36 2.50000E-01-7.45058E-09 1.00000E-02
 -1        37 5.00000E-01 2.50000E-01-1.50000E-02
 -1        39 5.00000E-01 2.50000E-01 1.50000E-02
 -1        40 2.50000E-01 5.00000E-01-1.00000E-02
 -1        42 2.50000E-01 5.00000E-01 1.00000E-02
 -1        43-7.45058E-09 2.50000E-01-5.00000E-03
 -1        45-7.45058E-09 2.50000E-01 5.00000E-03
 -1        46 5.00000E-01 1.00000E+00-1.50000E-02
 -1        47 5.00000E-01 1.00000E+00 0.00000E+00
 -1        48 5.00000E-01 1.00000E+00 1.50000E-02
 -1        49-7.45058E-09 1.00000E+00-5.00000E-03
 -1        50-7.45058E-09 1.00000E+00 0.00000E+00
 -1        51-7.45058E-09 1.00000E+00 5.00000E-03
 -1        52 5.00000E-01 7.50000E-01-1.50000E-02
 -1        54 5.00000E-01 7.50000E-01 1.50000E-02
 -1        55 2.50000E-01 1.00000E+00-1.00000E-02
 -1        57 2.50000E-01 1.00000E+00 1.00000E-02
 -1        58-7.45058E-09 7.50000E-01-5.00000E-03
 -1        60-7.45058E-09 7.50000E-01 5.00000E-03
 -1        61 1.00000E+00-7.45058E-09-1.00000E-02
 -1        62 1.00000E+00-7.45058E-09 0.00000E+00
 -1        63 1.00000E+00-7.45058E-09 1.00000E-02
 -1        64 1.00000E+00 5.00000E-01-1.00000E-02
 -1        65 1.00000E+00 5.00000E-01 0.00000E+00
 -1        66 1.00000E+00 5.00000E-01 1.00000E-02
 -1        67 7.50000E-01-7.45058E-09-1.25000E-02
 -1        69 7.50000E-01-7.45058E-09 1.25000E-02
 -1        70 1.00000E+00 2.50000E-01-1.00000E-02
 -1        72 1.00000E+00 2.50000E-01 1.00000E-02
 -1        73 7.50000E-01 5.00000E-01-1.25000E-02
 -1        75 7.50000E-01 5.00000E-01 1.25000E-02
 -1        76 1.00000E+00 1.00000E+00-1.00000E-02
 -1        77 1.00000E+00 1.00000E+00 0.00000E+00
 -1        78 1.00000E+00 1.00000E+00 1.00000E-02
 -1        79 1.00000E+00 7.50000E-01-1.00000E-02
 -1        81 1.00000E+00 7.50000E-01 1.00000E-02
 -1        82 7.50000E-01 1.00000E+00-1.25000E-02
 -1        84 7.50000E-01 1.00000E+00 1.25000E-02
 -3
    3C                             4                                     1
 -1         1    4    0    1
 -2        22        25        28        31        24        27        30        33        34        37
 -2        40        43        23        26        29        32        36        39        42        45
 -1         2    4    0    1
 -2        31        28        46        49        33        30        48        51        40        52
 -2        55        58        32        29        47        50        42        54        57        60
 -1         3    4    0    1
 -2        25        61        64        28        27        63        66        30        67        70
 -2        73        37        26        62        65        29        69        72        75        39
 -1         4    4    0    1
 -2        28        64        76        46        30        66        78        48        73        79
 -2        82        52        29        65        77        47        75        81        84        54
 -3
    1PSTEP                         1           1           1          
  100CL  101 1.000000000          51                     0    1           1
 -4  DISP        4    1
 -5  D1          1    2    1    0
 -5  D2          1    2    2    0
 -5  D3          1    2    3    0
 -5  ALL         1    2    0    0    1ALL
 -1        22 0.00000E+00 0.00000E+00 0.00000E+00
 -1        23 0.00000E+00 0.00000E+00 0.00000E+00
 -1        24 0.00000E+00 0.00000E+00 0.00000E+00
 -1        25 0.00000E+00 0.00000E+00 0.00000E+00
 -1        26 0.00000E+00 0.00000E+00 0.00000E+00
 -1        27 0.00000E+00 0.00000E+00 0.00000E+00
 -1        28 0.00000E+00 0.00000E+00 0.00000E+00
 -1        29 0.00000E+00 0.00000E+00 0.00000E+00
 -1        30 0.00000E+00 0.00000E+00 0.00000E+00
 -1        31 0.00000E+00 0.00000E+00 0.00000E+00
 -1        32 0.00000E+00 0.00000E+00 0.00000E+00
 -1        33 0.00000E+00 0.00000E+00 0.00000E+00
 -1        34 0.00000E+00 0.00000E+00 0.00000E+00
 -1        36 0.00000E+00 0.00000E+00 0.00000E+00
 -1        37 0.00000E+00 0.00000E+00 0.00000E+00
 -1        39 0.00000E+00 0.00000E+00 0.00000E+00
 -1        40 0.00000E+00 0.00000E+00 0.00000E+00
 -1        42 0.00000E+00 0.00000E+00 0.00000E+00
 -1        43 0.00000E+00 0.00000E+00 0.00000E+00
 -1        45 0.00000E+00 0.00000E+00 0.00000E+00
 -1        46 0.00000E+00 0.00000E+00 0.00000E+00
 -1        47 0.00000E+00 0.00000E+00 0.00000E+00
 -1        48 0.00000E+00 0.00000E+00 0.00000E+00
 -1        49 0.00000E+00 0.00000E+00 0.00000E+00
 -1        50 0.00000E+00 0.00000E+00 0.00000E+00
 -1        51 0.00000E+00 0.00000E+00 0.00000E+00
 -1        52 0.00000E+00 0.00000E+00 0.00000E+00
 -1        54 0.00000E+00 0.00000E+00 0.00000E+00
 -1        55 0.00000E+00 0.00000E+00 0.00000E+00
 -1        57 0.00000E+00 0.00000E+00 0.00000E+00
 -1        58 0.00000E+00 0.00000E+00 0.00000E+00
 -1        60 0.00000E+00 0.00000E+00 0.00000E+00
 -1        61-1.83542E-06-2.29221E-05-1.77569E-06
 -1        62-1.83542E-06-2.29221E-05 0.00000E+00
 -1        63-1.83542E-06-2.29221E-05 1.77569E-06
 -1        64 3.06694E-04-2.98266E-13 2.22933E-06
 -1        65 3.06694E-04-2.98266E-13 0.00000E+00
 -1        66 3.06694E-04-2.98266E-13-2.22933E-06
 -1        67 2.99551E-05 3.15167E-05-4.46637E-07
 -1        69 2.99551E-05 3.15167E-05 4.46637E-07
 -1        70 6.32623E-05-3.14236E-06 2.26819E-07
 -1        72 6.32623E-05-3.14236E-06-2.26819E-07
 -1        73 1.15396E-04-1.85759E-13 2.71282E-06
 -1        75 1.15396E-04-1.85759E-13-2.71282E-06
 -1        76-1.83542E-06 2.29221E-05-1.77569E-06
 -1        77-1.83542E-06 2.29221E-05 0.00000E+00
 -1        78-1.83542E-06 2.29221E-05 1.77569E-06
 -1        79 6.32623E-05 3.14236E-06 2.26819E-07
 -1        81 6.32623E-05 3.14236E-06-2.26819E-07
 -1        82 2.99551E-05-3.15167E-05-4.46637E-07
 -1        84 2.99551E-05-3.15167E-05 4.46637E-07
 -3
    1PSTEP                         2           1           1          
  100CL  101 1.000000000          51                     0    1           1
 -4  STRESS      6    1
 -5  SXX         1    4    1    1
 -5  SYY         1    4    2    2
 -5  SZZ         1    4    3    3
 -5  SXY         1    4    1    2
 -5  SYZ         1    4    2    3
 -5  SZX         1    4    3    1
 -1        22 0.00000E+00 0.00000E+00 0.00000E+00 0.00000E+00 0.00000E+00 0.00000E+00
 -1        23 0.00000E+00 0.00000E+00 0.00000E+00 0.00000E+00 0.00000E+00 0.00000E+00
 -1        24 0.00000E+00 0.00000E+00 0.00000E+00 0.00000E+00 0.00000E+00 0.00000E+00
 -1        25 1.23772E+01-2.29982E+00 1.23773E-02 8.77527E+00 6.22975E-02 1.07062E-02
 -1        26 1.23772E+01-2.29982E+00 1.23773E-02 8.77527E+00-4.51375E-15 1.91782E-14
 -1        27 1.23772E+01-2.29982E+00 1.23773E-02 8.77527E+00-6.22975E-02-1.07062E-02
 -1        28 2.00537E+01 7.57248E-03 2.73897E-02-4.75773E-08 5.75080E-10 7.19420E-01
 -1        29 2.00537E+01 7.57248E-03 2.73897E-02-4.75773E-08 1.04777E-15-4.02456E-14
 -1        30 2.00537E+01 7.57248E-03 2.73897E-02-4.75773E-08-5.75078E-10-7.19420E-01
 -1        31 0.00000E+00 0.00000E+00 0.00000E+00 0.00000E+00 0.00000E+00 0.00000E+00
 -1        32 0.00000E+00 0.00000E+00 0.00000E+00 0.00000E+00 0.00000E+00 0.00000E+00
 -1        33 0.00000E+00 0.00000E+00 0.00000E+00 0.00000E+00 0.00000E+00 0.00000E+00
 -1        34 0.00000E+00 0.00000E+00 0.00000E+00 0.00000E+00 0.00000E+00 0.00000E+00
 -1        36 0.00000E+00 0.00000E+00 0.00000E+00 0.00000E+00 0.00000E+00 0.00000E+00
 -1        37 1.62154E+01-1.14612E+00 1.98835E-02 2.75860E+00 6.22975E-02 3.65063E-01
 -1        39 1.62154E+01-1.14612E+00 1.98835E-02 2.75860E+00-6.22975E-02-3.65063E-01
 -1        40 0.00000E+00 0.00000E+00 0.00000E+00 0.00000E+00 0.00000E+00 0.00000E+00
 -1        42 0.00000E+00 0.00000E+00 0.00000E+00 0.00000E+00 0.00000E+00 0.00000E+00
 -1        43 0.00000E+00 0.00000E+00 0.00000E+00 0.00000E+00 0.00000E+00 0.00000E+00
 -1        45 0.00000E+00 0.00000E+00 0.00000E+00 0.00000E+00 0.00000E+00 0.00000E+00
 -1        46 1.23772E+01-2.29982E+00 1.23773E-02-8.77527E+00-6.22975E-02 1.07062E-02
 -1        47 1.23772E+01-2.29982E+00 1.23773E-02-8.77527E+00 3.26822E-15 1.74548E-14
 -1        48 1.23772E+01-2.29982E+00 1.23773E-02-8.77527E+00 6.22975E-02-1.07062E-02
 -1        49 0.00000E+00 0.00000E+00 0.00000E+00 0.00000E+00 0.00000E+00 0.00000E+00
 -1        50 0.00000E+00 0.00000E+00 0.00000E+00 0.00000E+00 0.00000E+00 0.00000E+00
 -1        51 0.00000E+00 0.00000E+00 0.00000E+00 0.00000E+00 0.00000E+00 0.00000E+00
 -1        52 1.62154E+01-1.14613E+00 1.98835E-02-2.75860E+00-6.22975E-02 3.65063E-01
 -1        54 1.62154E+01-1.14613E+00 1.98835E-02-2.75860E+00 6.22975E-02-3.65063E-01
 -1        55 0.00000E+00 0.00000E+00 0.00000E+00 0.00000E+00 0.00000E+00 0.00000E+00
 -1        57 0.00000E+00 0.00000E+00 0.00000E+00 0.00000E+00 0.00000E+00 0.00000E+00
 -1        58 0.00000E+00 0.00000E+00 0.00000E+00 0.00000E+00 0.00000E+00 0.00000E+00
 -1        60 0.00000E+00 0.00000E+00 0.00000E+00 0.00000E+00 0.00000E+00 0.00000E+00
 -1        61-8.14914E+01-1.28964E+01-6.01005E-02-4.57651E+01 7.71552E-01-6.80603E-01
 -1        62-8.14914E+01-1.28964E+01-6.01005E-02-4.57651E+01 8.98170E-14-6.08957E-14
 -1        63-8.14914E+01-1.28964E+01-6.01005E-02-4.57651E+01-7.71552E-01 6.80603E-01
 -1        64 1.78785E+02 3.72618E+01 2.56772E-02 1.73376E-07 4.68020E-09-4.23329E-01
 -1        65 1.78785E+02 3.72618E+01 2.56772E-02 1.73376E-07-5.58442E-14 1.67297E-13
 -1        66 1.78785E+02 3.72618E+01 2.56772E-02 1.73376E-07-4.68031E-09 4.23329E-01
 -1        67-2.83685E+01-8.74804E+00-1.76730E-02-1.41073E+01 4.48074E-01-3.29595E-01
 -1        69-2.83685E+01-8.74804E+00-1.76730E-02-1.41073E+01-4.48074E-01 3.29595E-01
 -1        70 4.86470E+01 1.21827E+01-1.72117E-02 2.75862E+01 7.71552E-01-5.51966E-01
 -1        72 4.86470E+01 1.21827E+01-1.72117E-02 2.75862E+01-7.71552E-01 5.51966E-01
 -1        73 1.09446E+02 1.86385E+01 4.02283E-02 3.91106E-08 2.91518E-09 5.07755E-01
 -1        75 1.09446E+02 1.86385E+01 4.02283E-02 3.91106E-08-2.91523E-09-5.07755E-01
 -1        76-8.14914E+01-1.28964E+01-6.01005E-02 4.57651E+01-7.71552E-01-6.80603E-01
 -1        77-8.14914E+01-1.28964E+01-6.01005E-02 4.57651E+01 3.77476E-14-9.66449E-14
 -1        78-8.14914E+01-1.28964E+01-6.01005E-02 4.57651E+01 7.71552E-01 6.80603E-01
 -1        79 4.86470E+01 1.21827E+01-1.72117E-02-2.75862E+01-7.71552E-01-5.51966E-01
 -1        81 4.86470E+01 1.21827E+01-1.72117E-02-2.75862E+01 7.71552E-01 5.51966E-01
 -1        82-2.83685E+01-8.74804E+00-1.76730E-02 1.41073E+01-4.48074E-01-3.29595E-01
 -1        84-2.83685E+01-8.74804E+00-1.76730E-02 1.41073E+01 4.48074E-01 3.29595E-01
 -3
 9999
