    1C
    1UUSER                                                              
    1UDATE              25.january.2020                                 
    1UTIME              14:52:01                                        
    1UHOST                                                              
    1UPGM               CalculiX                                        
    1UVERSION           Version 2.16                             
    1UCOMPILETIME       Tue  7 Jan 19:57:43 CET 2020                    
    1UDIR                                                               
    1UDBN                                                               
    1UMAT    1EL                                                        
    2C                            18                                     1
 -1        22-7.45058E-09-7.45058E-09-5.00000E-03
 -1        24-7.45058E-09-7.45058E-09 5.00000E-03
 -1        25 5.00000E-01-7.45058E-09-5.00000E-03
 -1        27 5.00000E-01-7.45058E-09 5.00000E-03
 -1        28 5.00000E-01 5.00000E-01-5.00000E-03
 -1        30 5.00000E-01 5.00000E-01 5.00000E-03
 -1        31-7.45058E-09 5.00000E-01-5.00000E-03
 -1        33-7.45058E-09 5.00000E-01 5.00000E-03
 -1        34 5.00000E-01 1.00000E+00-5.00000E-03
 -1        36 5.00000E-01 1.00000E+00 5.00000E-03
 -1        37-7.45058E-09 1.00000E+00-5.00000E-03
 -1        39-7.45058E-09 1.00000E+00 5.00000E-03
 -1        40 1.00000E+00-7.45058E-09-5.00000E-03
 -1        42 1.00000E+00-7.45058E-09 5.00000E-03
 -1        43 1.00000E+00 5.00000E-01-5.00000E-03
 -1        45 1.00000E+00 5.00000E-01 5.00000E-03
 -1        46 1.00000E+00 1.00000E+00-5.00000E-03
 -1        48 1.00000E+00 1.00000E+00 5.00000E-03
 -3
    3C                             4                                     1
 -1         1    1    0    1
 -2        22        25        28        31        24        27        30        33
 -1         2    1    0    1
 -2        31        28        34        37        33        30        36        39
 -1         3    1    0    1
 -2        25        40        43        28        27        42        45        30
 -1         4    1    0    1
 -2        28        43        46        34        30        45        48        36
 -3
    1PSTEP                         1           1           1          
  100CL  101 1.000000000          18                     0    1           1
 -4  DISP        4    1
 -5  D1          1    2    1    0
 -5  D2          1    2    2    0
 -5  D3          1    2    3    0
 -5  ALL         1    2    0    0    1ALL
 -1        22 0.00000E+00 7.14286E-05 7.14286E-07
 -1        24 0.00000E+00 7.14286E-05-7.14286E-07
 -1        25 2.38095E-04 7.14286E-05 7.14286E-07
 -1        27 2.38095E-04 7.14286E-05-7.14286E-07
 -1        28 2.38095E-04 1.49068E-18 7.14286E-07
 -1        30 2.38095E-04 1.49068E-18-7.14286E-07
 -1        31 0.00000E+00 0.00000E+00 7.14286E-07
 -1        33 0.00000E+00 0.00000E+00-7.14286E-07
 -1        34 2.38095E-04-7.14286E-05 7.14286E-07
 -1        36 2.38095E-04-7.14286E-05-7.14286E-07
 -1        37 0.00000E+00-7.14286E-05 7.14286E-07
 -1        39 0.00000E+00-7.14286E-05-7.14286E-07
 -1        40 4.76190E-04 7.14286E-05 7.14286E-07
 -1        42 4.76190E-04 7.14286E-05-7.14286E-07
 -1        43 4.76190E-04 3.85061E-17 7.14286E-07
 -1        45 4.76190E-04 3.85061E-17-7.14286E-07
 -1        46 4.76190E-04-7.14286E-05 7.14286E-07
 -1        48 4.76190E-04-7.14286E-05-7.14286E-07
 -3
    1PSTEP                         2           1           1          
  100CL  101 1.000000000          18                     0    1           1
 -4  STRESS      6    1
 -5  SXX         1    4    1    1
 -5  SYY         1    4    2    2
 -5  SZZ         1    4    3    3
 -5  SXY         1    4    1    2
 -5  SYZ         1    4    2    3
 -5  SZX         1    4    3    1
 -1        22 9.99960E+01 5.05673E-12 2.98880E-13 5.53960E-13-9.52714E-14-1.46434E-13
 -1        24 9.99960E+01 5.10387E-12 3.16899E-13 5.54116E-13-1.20554E-13-1.15352E-13
 -1        25 9.99960E+01 5.05773E-12 7.61586E-13-1.07008E-12-5.72467E-14 3.51415E-13
 -1        27 9.99960E+01 5.06202E-12 7.72848E-13-1.07290E-12 1.91476E-13 8.07936E-14
 -1        28 9.99960E+01 1.36758E-12-6.43176E-15-9.40980E-13 2.14708E-14-2.08121E-13
 -1        30 9.99960E+01 1.35426E-12-1.63758E-14-9.35757E-13-7.26471E-15-5.00730E-14
 -1        31 9.99960E+01-6.33553E-13-1.18794E-12 2.39378E-13 5.31222E-14 6.68681E-14
 -1        33 9.99960E+01-6.05260E-13-1.17564E-12 2.40996E-13 1.36733E-13-8.50914E-14
 -1        34 9.99960E+01 2.14460E-12-7.02920E-13 1.30776E-13-1.42328E-13-2.39887E-13
 -1        36 9.99960E+01 2.13109E-12-7.19511E-13 1.27967E-13 4.75095E-14-4.73014E-14
 -1        37 9.99960E+01-3.88509E-12 6.74478E-14 2.54402E-12 1.00223E-14 2.42621E-13
 -1        39 9.99960E+01-3.86212E-12 7.97547E-14 2.54611E-12-5.67842E-14 1.63335E-13
 -1        40 9.99960E+01 2.76784E-12-1.71870E-13-7.47987E-12-7.37881E-14 8.90176E-14
 -1        42 9.99960E+01 2.75839E-12-1.67365E-13-7.45086E-12-4.95224E-14 8.44661E-13
 -1        43 9.99960E+01-3.12954E-12 1.20743E-12-3.17262E-12-4.75239E-14 2.95978E-13
 -1        45 9.99960E+01-3.16707E-12 1.20046E-12-3.16862E-12 4.04483E-14-2.38894E-13
 -1        46 9.99960E+01-2.68833E-12-3.03036E-13 3.40177E-13-4.09148E-15 2.73211E-13
 -1        48 9.99960E+01-2.69569E-12-3.35010E-13 3.64765E-13-1.25366E-13 6.79975E-13
 -3
    1PSTEP                         3           1           1          
  100CL  101 1.000000000          18                     0    1           1
 -4  ERROR       1    1
 -5  STR(%)      1    1    0    0
 -1        22 5.95803E-12
 -1        24 5.95803E-12
 -1        25 1.25266E-11
 -1        27 1.25266E-11
 -1        28 1.25266E-11
 -1        30 1.25266E-11
 -1        31 5.95803E-12
 -1        33 5.95803E-12
 -1        34 5.55802E-12
 -1        36 5.55802E-12
 -1        37 5.55802E-12
 -1        39 5.55802E-12
 -1        40 1.25266E-11
 -1        42 1.25266E-11
 -1        43 1.25266E-11
 -1        45 1.25266E-11
 -1        46 1.34740E-12
 -1        48 1.34740E-12
 -3
    1PSTEP                         1           1           2          
  100CL  102 0.00000E+00          18                     3    2           1
 -4  NORM        4    1
 -5  NORMX       1    2	 1    0
 -5  NORMY       1    2	 2    0
 -5  NORMZ       1    2	 3    0
 -5  ALL         1    2	 0    0    1ALL
 -1        22 0.00000E+00-1.00000E+00 0.00000E+00
 -1        24 0.00000E+00-1.00000E+00 0.00000E+00
 -1        25 0.00000E+00-1.00000E+00 0.00000E+00
 -1        27 0.00000E+00-1.00000E+00 0.00000E+00
 -1        28 0.00000E+00 0.00000E+00 0.00000E+00
 -1        30 0.00000E+00 0.00000E+00 0.00000E+00
 -1        31 0.00000E+00 0.00000E+00 0.00000E+00
 -1        33 0.00000E+00 0.00000E+00 0.00000E+00
 -1        34 0.00000E+00 1.00000E+00 0.00000E+00
 -1        36 0.00000E+00 1.00000E+00 0.00000E+00
 -1        37 0.00000E+00 1.00000E+00 0.00000E+00
 -1        39 0.00000E+00 1.00000E+00 0.00000E+00
 -1        40 7.07107E-01-7.07107E-01 0.00000E+00
 -1        42 7.07107E-01-7.07107E-01 0.00000E+00
 -1        43 1.00000E+00 0.00000E+00 0.00000E+00
 -1        45 1.00000E+00 0.00000E+00 0.00000E+00
 -1        46 7.07107E-01 7.07107E-01 0.00000E+00
 -1        48 7.07107E-01 7.07107E-01 0.00000E+00
 -3
    1PSTEP                         2           1           2          
  100CL  103 0.00000E+00          18                     3    3           1
 -4  SENENER     2    1
 -5  DFDN        1    1    1    0
 -5  DFDNFIL     1    1    2    0
 -1        22 0.00000E+00 0.00000E+00
 -1        24 0.00000E+00 0.00000E+00
 -1        25-1.96438E-03-1.00000E+00
 -1        27-1.96438E-03-1.00000E+00
 -1        28 0.00000E+00 0.00000E+00
 -1        30 0.00000E+00 0.00000E+00
 -1        31 0.00000E+00 0.00000E+00
 -1        33 0.00000E+00 0.00000E+00
 -1        34-1.96438E-03-1.00000E+00
 -1        36-1.96438E-03-1.00000E+00
 -1        37 0.00000E+00 0.00000E+00
 -1        39 0.00000E+00 0.00000E+00
 -1        40 0.00000E+00 0.00000E+00
 -1        42 0.00000E+00 0.00000E+00
 -1        43 0.00000E+00 0.00000E+00
 -1        45 0.00000E+00 0.00000E+00
 -1        46 0.00000E+00 0.00000E+00
 -1        48 0.00000E+00 0.00000E+00
 -3
 9999
