    1C
    1UUSER                                                              
    1UDATE              25.january.2020                                 
    1UTIME              14:52:01                                        
    1UHOST                                                              
    1UPGM               CalculiX                                        
    1UVERSION           Version 2.16                             
    1UCOMPILETIME       Tue  7 Jan 19:57:43 CET 2020                    
    1UDIR                                                               
    1UDBN                                                               
    1UMAT    1EL                                                        
    2C                            51                                     1
 -1        22-7.45058E-09-7.45058E-09-5.00000E-01
 -1        23-7.45058E-09-7.45058E-09 0.00000E+00
 -1        24-7.45058E-09-7.45058E-09 5.00000E-01
 -1        25 5.00000E-01-7.45058E-09-5.00000E-01
 -1        26 5.00000E-01-7.45058E-09 0.00000E+00
 -1        27 5.00000E-01-7.45058E-09 5.00000E-01
 -1        28 5.00000E-01 5.00000E-01-5.00000E-01
 -1        29 5.00000E-01 5.00000E-01 0.00000E+00
 -1        30 5.00000E-01 5.00000E-01 5.00000E-01
 -1        31-7.45058E-09 5.00000E-01-5.00000E-01
 -1        32-7.45058E-09 5.00000E-01 0.00000E+00
 -1        33-7.45058E-09 5.00000E-01 5.00000E-01
 -1        34 2.50000E-01-7.45058E-09-5.00000E-01
 -1        36 2.50000E-01-7.45058E-09 5.00000E-01
 -1        37 5.00000E-01 2.50000E-01-5.00000E-01
 -1        39 5.00000E-01 2.50000E-01 5.00000E-01
 -1        40 2.50000E-01 5.00000E-01-5.00000E-01
 -1        42 2.50000E-01 5.00000E-01 5.00000E-01
 -1        43-7.45058E-09 2.50000E-01-5.00000E-01
 -1        45-7.45058E-09 2.50000E-01 5.00000E-01
 -1        46 5.00000E-01 1.00000E+00-5.00000E-01
 -1        47 5.00000E-01 1.00000E+00 0.00000E+00
 -1        48 5.00000E-01 1.00000E+00 5.00000E-01
 -1        49-7.45058E-09 1.00000E+00-5.00000E-01
 -1        50-7.45058E-09 1.00000E+00 0.00000E+00
 -1        51-7.45058E-09 1.00000E+00 5.00000E-01
 -1        52 5.00000E-01 7.50000E-01-5.00000E-01
 -1        54 5.00000E-01 7.50000E-01 5.00000E-01
 -1        55 2.50000E-01 1.00000E+00-5.00000E-01
 -1        57 2.50000E-01 1.00000E+00 5.00000E-01
 -1        58-7.45058E-09 7.50000E-01-5.00000E-01
 -1        60-7.45058E-09 7.50000E-01 5.00000E-01
 -1        61 1.00000E+00-7.45058E-09-5.00000E-01
 -1        62 1.00000E+00-7.45058E-09 0.00000E+00
 -1        63 1.00000E+00-7.45058E-09 5.00000E-01
 -1        64 1.00000E+00 5.00000E-01-5.00000E-01
 -1        65 1.00000E+00 5.00000E-01 0.00000E+00
 -1        66 1.00000E+00 5.00000E-01 5.00000E-01
 -1        67 7.50000E-01-7.45058E-09-5.00000E-01
 -1        69 7.50000E-01-7.45058E-09 5.00000E-01
 -1        70 1.00000E+00 2.50000E-01-5.00000E-01
 -1        72 1.00000E+00 2.50000E-01 5.00000E-01
 -1        73 7.50000E-01 5.00000E-01-5.00000E-01
 -1        75 7.50000E-01 5.00000E-01 5.00000E-01
 -1        76 1.00000E+00 1.00000E+00-5.00000E-01
 -1        77 1.00000E+00 1.00000E+00 0.00000E+00
 -1        78 1.00000E+00 1.00000E+00 5.00000E-01
 -1        79 1.00000E+00 7.50000E-01-5.00000E-01
 -1        81 1.00000E+00 7.50000E-01 5.00000E-01
 -1        82 7.50000E-01 1.00000E+00-5.00000E-01
 -1        84 7.50000E-01 1.00000E+00 5.00000E-01
 -3
    3C                             4                                     1
 -1         1    4    0    1
 -2        22        25        28        31        24        27        30        33        34        37
 -2        40        43        23        26        29        32        36        39        42        45
 -1         2    4    0    1
 -2        31        28        46        49        33        30        48        51        40        52
 -2        55        58        32        29        47        50        42        54        57        60
 -1         3    4    0    1
 -2        25        61        64        28        27        63        66        30        67        70
 -2        73        37        26        62        65        29        69        72        75        39
 -1         4    4    0    1
 -2        28        64        76        46        30        66        78        48        73        79
 -2        82        52        29        65        77        47        75        81        84        54
 -3
    1PSTEP                         1           1           1          
  100CL  101 1.000000000          51                     0    1           1
 -4  DISP        4    1
 -5  D1          1    2    1    0
 -5  D2          1    2    2    0
 -5  D3          1    2    3    0
 -5  ALL         1    2    0    0    1ALL
 -1        22 0.00000E+00 7.14286E-05 7.14286E-05
 -1        23 0.00000E+00 7.14286E-05 0.00000E+00
 -1        24 0.00000E+00 7.14286E-05-7.14286E-05
 -1        25 2.38095E-04 7.14286E-05 7.14286E-05
 -1        26 2.38095E-04 7.14286E-05 0.00000E+00
 -1        27 2.38095E-04 7.14286E-05-7.14286E-05
 -1        28 2.38095E-04 8.17387E-20 7.14286E-05
 -1        29 2.38095E-04 8.17387E-20 0.00000E+00
 -1        30 2.38095E-04 8.17387E-20-7.14286E-05
 -1        31 0.00000E+00 0.00000E+00 7.14286E-05
 -1        32 0.00000E+00 0.00000E+00 0.00000E+00
 -1        33 0.00000E+00 0.00000E+00-7.14286E-05
 -1        34 1.19048E-04 7.14286E-05 7.14286E-05
 -1        36 1.19048E-04 7.14286E-05-7.14286E-05
 -1        37 2.38095E-04 3.57143E-05 7.14286E-05
 -1        39 2.38095E-04 3.57143E-05-7.14286E-05
 -1        40 1.19048E-04 3.70654E-20 7.14286E-05
 -1        42 1.19048E-04 3.70654E-20-7.14286E-05
 -1        43 0.00000E+00 3.57143E-05 7.14286E-05
 -1        45 0.00000E+00 3.57143E-05-7.14286E-05
 -1        46 2.38095E-04-7.14286E-05 7.14286E-05
 -1        47 2.38095E-04-7.14286E-05 0.00000E+00
 -1        48 2.38095E-04-7.14286E-05-7.14286E-05
 -1        49 0.00000E+00-7.14286E-05 7.14286E-05
 -1        50 0.00000E+00-7.14286E-05 0.00000E+00
 -1        51 0.00000E+00-7.14286E-05-7.14286E-05
 -1        52 2.38095E-04-3.57143E-05 7.14286E-05
 -1        54 2.38095E-04-3.57143E-05-7.14286E-05
 -1        55 1.19048E-04-7.14286E-05 7.14286E-05
 -1        57 1.19048E-04-7.14286E-05-7.14286E-05
 -1        58 0.00000E+00-3.57143E-05 7.14286E-05
 -1        60 0.00000E+00-3.57143E-05-7.14286E-05
 -1        61 4.76190E-04 7.14286E-05 7.14286E-05
 -1        62 4.76190E-04 7.14286E-05 0.00000E+00
 -1        63 4.76190E-04 7.14286E-05-7.14286E-05
 -1        64 4.76190E-04 5.45489E-19 7.14286E-05
 -1        65 4.76190E-04 5.45489E-19 0.00000E+00
 -1        66 4.76190E-04 5.45489E-19-7.14286E-05
 -1        67 3.57143E-04 7.14286E-05 7.14286E-05
 -1        69 3.57143E-04 7.14286E-05-7.14286E-05
 -1        70 4.76190E-04 3.57143E-05 7.14286E-05
 -1        72 4.76190E-04 3.57143E-05-7.14286E-05
 -1        73 3.57143E-04 2.38458E-19 7.14286E-05
 -1        75 3.57143E-04 2.38458E-19-7.14286E-05
 -1        76 4.76190E-04-7.14286E-05 7.14286E-05
 -1        77 4.76190E-04-7.14286E-05 0.00000E+00
 -1        78 4.76190E-04-7.14286E-05-7.14286E-05
 -1        79 4.76190E-04-3.57143E-05 7.14286E-05
 -1        81 4.76190E-04-3.57143E-05-7.14286E-05
 -1        82 3.57143E-04-7.14286E-05 7.14286E-05
 -1        84 3.57143E-04-7.14286E-05-7.14286E-05
 -3
    1PSTEP                         2           1           1          
  100CL  101 1.000000000          51                     0    1           1
 -4  STRESS      6    1
 -5  SXX         1    4    1    1
 -5  SYY         1    4    2    2
 -5  SZZ         1    4    3    3
 -5  SXY         1    4    1    2
 -5  SYZ         1    4    2    3
 -5  SZX         1    4    3    1
 -1        22 9.99960E+01 1.38466E-13 2.51607E-13-2.33960E-14 3.99196E-14 5.88453E-14
 -1        23 1.00005E+02 6.38377E-14 1.03615E-13-3.03521E-14-1.28121E-14-2.04397E-15
 -1        24 9.99960E+01 5.35503E-14 3.16463E-14-1.62991E-14-4.77289E-14-2.93911E-14
 -1        25 9.99960E+01-4.26050E-14-1.28993E-13-8.15127E-14 9.79283E-17 2.40450E-14
 -1        26 1.00005E+02-2.82729E-14-1.83991E-14-9.55721E-14 4.07323E-15 5.32398E-16
 -1        27 9.99960E+01-4.53503E-14 7.64128E-15-2.87698E-14-2.02911E-14 2.69283E-14
 -1        28 9.99960E+01 1.02964E-13 9.74005E-15 1.99809E-14-4.48605E-14-1.73143E-14
 -1        29 1.00005E+02 1.05694E-13-4.33212E-14 5.08745E-14-1.99522E-15-7.82964E-15
 -1        30 9.99960E+01 3.94885E-14-1.47227E-13 2.80213E-14 1.22086E-14-2.72283E-14
 -1        31 9.99960E+01-7.31128E-14 2.31068E-14 1.82902E-14-2.14656E-14 4.44793E-14
 -1        32 1.00005E+02-7.28193E-14 8.24656E-15 8.22238E-16 6.75864E-15 2.92264E-15
 -1        33 9.99960E+01-4.36263E-14 3.89272E-14 2.04803E-14 3.74378E-14-6.73061E-14
 -1        34 1.00005E+02 5.33790E-14 7.58696E-14-8.73129E-15-5.89220E-15 6.68133E-14
 -1        36 1.00005E+02 2.96695E-14 2.48353E-14-2.43855E-14-1.47024E-14-1.43723E-14
 -1        37 1.00005E+02-6.82796E-15-5.40108E-14-2.73855E-14-2.45806E-14-1.27164E-15
 -1        39 1.00005E+02 4.23492E-14 3.95115E-15-2.60110E-14-2.12963E-14-1.38797E-14
 -1        40 1.00005E+02 6.11974E-14 5.45570E-14 1.36394E-14-1.79516E-14-1.47740E-16
 -1        42 1.00005E+02 2.61310E-14-4.49806E-15 8.97358E-15 4.22388E-15-3.63898E-14
 -1        43 1.00005E+02-1.99655E-14 6.50705E-14-1.65417E-14 2.25560E-14 5.33727E-14
 -1        45 1.00005E+02-5.52986E-14-3.31151E-14-8.17942E-15 1.48435E-14-3.23543E-14
 -1        46 9.99960E+01-9.74560E-14-4.79343E-14 1.66121E-13 3.44229E-14 3.08285E-15
 -1        47 1.00005E+02-6.86807E-14 1.40356E-14 1.93407E-13 6.92205E-15-1.08044E-14
 -1        48 9.99960E+01-5.39892E-14 3.78785E-14 1.76775E-13 1.32997E-14 4.48635E-15
 -1        49 9.99960E+01 7.22930E-14 1.12134E-13 4.24351E-14 1.16089E-14 7.87746E-14
 -1        50 1.00005E+02 1.86844E-14 2.32698E-14 3.00830E-14-1.18980E-15 5.99567E-15
 -1        51 9.99960E+01-2.77130E-14-8.32951E-14 3.37436E-14-3.12775E-14-4.23915E-14
 -1        52 1.00005E+02-9.77980E-15-2.98039E-14 2.13445E-14-1.05439E-14 2.92121E-15
 -1        54 1.00005E+02 1.95472E-14-6.74424E-14 4.30689E-14 2.67011E-14-5.70970E-15
 -1        55 1.00005E+02 2.02867E-14 4.04999E-14-2.08536E-15 2.19925E-14 2.86911E-14
 -1        57 1.00005E+02-1.42945E-14-5.02602E-14 8.79811E-15-1.51748E-15-1.28913E-14
 -1        58 1.00005E+02-1.55161E-14 5.89999E-14 3.67240E-14-2.94678E-14 3.70713E-14
 -1        60 1.00005E+02-7.22775E-14-1.66906E-14 4.31051E-14-2.31501E-15-4.89392E-14
 -1        61 9.99960E+01 9.31912E-14 5.42613E-15-5.32639E-14-8.19788E-14-1.75471E-13
 -1        62 1.00005E+02 3.26231E-14-7.02548E-14-7.66896E-14-1.39263E-14-3.56468E-14
 -1        63 9.99960E+01 1.48435E-14-3.19947E-14 2.73085E-14 4.38960E-14 8.28292E-14
 -1        64 9.99960E+01-9.80828E-14-9.04670E-14-9.04229E-14-8.20160E-15-1.16601E-14
 -1        65 1.00005E+02-2.73090E-15 4.20687E-15-4.52445E-14 3.97304E-15-1.41513E-14
 -1        66 9.99960E+01-2.76372E-14-8.18655E-15-1.81153E-13 1.39948E-14 3.02961E-14
 -1        67 1.00005E+02-3.22684E-14-1.33076E-13-2.75325E-14-6.21124E-14-6.94716E-14
 -1        69 1.00005E+02 2.39101E-14 8.69392E-15-4.20750E-14 1.98625E-14 7.61483E-14
 -1        70 1.00005E+02 9.87534E-15-2.04758E-14 2.47850E-14 1.91260E-14-1.47431E-14
 -1        72 1.00005E+02-1.05127E-13-1.02426E-13 2.75152E-15-6.76105E-15 1.79465E-14
 -1        73 1.00005E+02 2.90473E-14-8.23265E-14 2.67917E-14-5.91823E-15 1.81106E-14
 -1        75 1.00005E+02 1.55790E-14-1.02857E-13-7.57596E-15-8.54703E-15 2.40472E-14
 -1        76 9.99960E+01-1.26632E-13 1.52376E-13 1.90039E-13 6.21083E-15-6.69925E-14
 -1        77 1.00005E+02-7.76402E-14 1.92047E-13 2.26579E-13-4.55967E-15 1.54502E-14
 -1        78 9.99960E+01-6.20008E-14 1.31268E-13 1.46378E-13-3.41793E-14 6.86313E-15
 -1        79 1.00005E+02-2.69506E-13-1.14385E-13 1.06995E-14-4.43885E-14-7.48109E-14
 -1        81 1.00005E+02-2.13302E-13-4.29174E-14 5.36961E-14 2.53116E-14 4.09151E-14
 -1        82 1.00005E+02 1.45984E-13 1.29171E-13 1.40919E-13 2.98474E-14-5.33385E-14
 -1        84 1.00005E+02 9.83962E-14 5.29231E-14 1.24127E-13-3.62683E-14 2.88765E-14
 -3
    1PSTEP                         3           1           1          
  100CL  101 1.000000000          51                     0    1           1
 -4  ERROR       1    1
 -5  STR(%)      1    1    0    0
 -1        22 2.57532E-14
 -1        23 2.57532E-14
 -1        24 2.57532E-14
 -1        25 3.52412E-14
 -1        26 3.52412E-14
 -1        27 3.52412E-14
 -1        28 7.99704E-14
 -1        29 7.99704E-14
 -1        30 7.99704E-14
 -1        31 3.65966E-14
 -1        32 3.65966E-14
 -1        33 3.65966E-14
 -1        34 3.04972E-14
 -1        36 3.04972E-14
 -1        37 5.76058E-14
 -1        39 5.76058E-14
 -1        40 5.82835E-14
 -1        42 5.82835E-14
 -1        43 3.11749E-14
 -1        45 3.11749E-14
 -1        46 7.99704E-14
 -1        47 7.99704E-14
 -1        48 7.99704E-14
 -1        49 3.65966E-14
 -1        50 3.65966E-14
 -1        51 3.65966E-14
 -1        52 7.99704E-14
 -1        54 7.99704E-14
 -1        55 5.82835E-14
 -1        57 5.82835E-14
 -1        58 3.65966E-14
 -1        60 3.65966E-14
 -1        61 3.52412E-14
 -1        62 3.52412E-14
 -1        63 3.52412E-14
 -1        64 7.99704E-14
 -1        65 7.99704E-14
 -1        66 7.99704E-14
 -1        67 3.52412E-14
 -1        69 3.52412E-14
 -1        70 5.76058E-14
 -1        72 5.76058E-14
 -1        73 7.99704E-14
 -1        75 7.99704E-14
 -1        76 7.99704E-14
 -1        77 7.99704E-14
 -1        78 7.99704E-14
 -1        79 7.99704E-14
 -1        81 7.99704E-14
 -1        82 7.99704E-14
 -1        84 7.99704E-14
 -3
    1PSTEP                         1           1           2          
  100CL  102 0.00000E+00          51                     3    2           1
 -4  NORM        4    1
 -5  NORMX       1    2	 1    0
 -5  NORMY       1    2	 2    0
 -5  NORMZ       1    2	 3    0
 -5  ALL         1    2	 0    0    1ALL
 -1        22 0.00000E+00-1.00000E+00 0.00000E+00
 -1        23 0.00000E+00-1.00000E+00 0.00000E+00
 -1        24 0.00000E+00-1.00000E+00 0.00000E+00
 -1        25 0.00000E+00-1.00000E+00 0.00000E+00
 -1        26 0.00000E+00-1.00000E+00 0.00000E+00
 -1        27 0.00000E+00-1.00000E+00 0.00000E+00
 -1        28 0.00000E+00 0.00000E+00 0.00000E+00
 -1        29 0.00000E+00 0.00000E+00 0.00000E+00
 -1        30 0.00000E+00 0.00000E+00 0.00000E+00
 -1        31 0.00000E+00 0.00000E+00 0.00000E+00
 -1        32 0.00000E+00 0.00000E+00 0.00000E+00
 -1        33 0.00000E+00 0.00000E+00 0.00000E+00
 -1        34 0.00000E+00-1.00000E+00 0.00000E+00
 -1        36 0.00000E+00-1.00000E+00 0.00000E+00
 -1        37 0.00000E+00 0.00000E+00 0.00000E+00
 -1        39 0.00000E+00 0.00000E+00 0.00000E+00
 -1        40 0.00000E+00 0.00000E+00 0.00000E+00
 -1        42 0.00000E+00 0.00000E+00 0.00000E+00
 -1        43 0.00000E+00 0.00000E+00 0.00000E+00
 -1        45 0.00000E+00 0.00000E+00 0.00000E+00
 -1        46 0.00000E+00 1.00000E+00 0.00000E+00
 -1        47 0.00000E+00 1.00000E+00 0.00000E+00
 -1        48 0.00000E+00 1.00000E+00 0.00000E+00
 -1        49 0.00000E+00 1.00000E+00 0.00000E+00
 -1        50 0.00000E+00 1.00000E+00 0.00000E+00
 -1        51 0.00000E+00 1.00000E+00 0.00000E+00
 -1        52 0.00000E+00 0.00000E+00 0.00000E+00
 -1        54 0.00000E+00 0.00000E+00 0.00000E+00
 -1        55 0.00000E+00 1.00000E+00 0.00000E+00
 -1        57 0.00000E+00 1.00000E+00 0.00000E+00
 -1        58 0.00000E+00 0.00000E+00 0.00000E+00
 -1        60 0.00000E+00 0.00000E+00 0.00000E+00
 -1        61 7.07107E-01-7.07107E-01 0.00000E+00
 -1        62 7.07107E-01-7.07107E-01 0.00000E+00
 -1        63 7.07107E-01-7.07107E-01 0.00000E+00
 -1        64 1.00000E+00 0.00000E+00 0.00000E+00
 -1        65 1.00000E+00 0.00000E+00 0.00000E+00
 -1        66 1.00000E+00 0.00000E+00 0.00000E+00
 -1        67 0.00000E+00-1.00000E+00 0.00000E+00
 -1        69 0.00000E+00-1.00000E+00 0.00000E+00
 -1        70 1.00000E+00 0.00000E+00 0.00000E+00
 -1        72 1.00000E+00 0.00000E+00 0.00000E+00
 -1        73 0.00000E+00 0.00000E+00 0.00000E+00
 -1        75 0.00000E+00 0.00000E+00 0.00000E+00
 -1        76 7.07107E-01 7.07107E-01 0.00000E+00
 -1        77 7.07107E-01 7.07107E-01 0.00000E+00
 -1        78 7.07107E-01 7.07107E-01 0.00000E+00
 -1        79 1.00000E+00 0.00000E+00 0.00000E+00
 -1        81 1.00000E+00 0.00000E+00 0.00000E+00
 -1        82 0.00000E+00 1.00000E+00 0.00000E+00
 -1        84 0.00000E+00 1.00000E+00 0.00000E+00
 -3
    1PSTEP                         2           1           2          
  100CL  103 0.00000E+00          51                     3    3           1
 -4  SENENER     2    1
 -5  DFDN        1    1    1    0
 -5  DFDNFIL     1    1    2    0
 -1        22 0.00000E+00 0.00000E+00
 -1        23 0.00000E+00 0.00000E+00
 -1        24 0.00000E+00 0.00000E+00
 -1        25-8.34860E-03-1.00000E+00
 -1        26-8.34860E-03-1.00000E+00
 -1        27-8.34860E-03-1.00000E+00
 -1        28 0.00000E+00 0.00000E+00
 -1        29 0.00000E+00 0.00000E+00
 -1        30 0.00000E+00 0.00000E+00
 -1        31 0.00000E+00 0.00000E+00
 -1        32 0.00000E+00 0.00000E+00
 -1        33 0.00000E+00 0.00000E+00
 -1        34 0.00000E+00 0.00000E+00
 -1        36 0.00000E+00 0.00000E+00
 -1        37 0.00000E+00 0.00000E+00
 -1        39 0.00000E+00 0.00000E+00
 -1        40 0.00000E+00 0.00000E+00
 -1        42 0.00000E+00 0.00000E+00
 -1        43 0.00000E+00 0.00000E+00
 -1        45 0.00000E+00 0.00000E+00
 -1        46-8.34860E-03-1.00000E+00
 -1        47-8.34860E-03-1.00000E+00
 -1        48-8.34860E-03-1.00000E+00
 -1        49 0.00000E+00 0.00000E+00
 -1        50 0.00000E+00 0.00000E+00
 -1        51 0.00000E+00 0.00000E+00
 -1        52 0.00000E+00 0.00000E+00
 -1        54 0.00000E+00 0.00000E+00
 -1        55 0.00000E+00 0.00000E+00
 -1        57 0.00000E+00 0.00000E+00
 -1        58 0.00000E+00 0.00000E+00
 -1        60 0.00000E+00 0.00000E+00
 -1        61 0.00000E+00 0.00000E+00
 -1        62 0.00000E+00 0.00000E+00
 -1        63 0.00000E+00 0.00000E+00
 -1        64 0.00000E+00 0.00000E+00
 -1        65 0.00000E+00 0.00000E+00
 -1        66 0.00000E+00 0.00000E+00
 -1        67 0.00000E+00 0.00000E+00
 -1        69 0.00000E+00 0.00000E+00
 -1        70 0.00000E+00 0.00000E+00
 -1        72 0.00000E+00 0.00000E+00
 -1        73 0.00000E+00 0.00000E+00
 -1        75 0.00000E+00 0.00000E+00
 -1        76 0.00000E+00 0.00000E+00
 -1        77 0.00000E+00 0.00000E+00
 -1        78 0.00000E+00 0.00000E+00
 -1        79 0.00000E+00 0.00000E+00
 -1        81 0.00000E+00 0.00000E+00
 -1        82 0.00000E+00 0.00000E+00
 -1        84 0.00000E+00 0.00000E+00
 -3
 9999
