    1C
    1UUSER                                                              
    1UDATE              25.january.2020                                 
    1UTIME              14:52:10                                        
    1UHOST                                                              
    1UPGM               CalculiX                                        
    1UVERSION           Version 2.16                             
    1UCOMPILETIME       Tue  7 Jan 19:57:43 CET 2020                    
    1UDIR                                                               
    1UDBN                                                               
    1UMAT    1EL                                                        
    2C                            40                                     1
 -1        18 0.00000E+00 0.00000E+00-5.00000E-02
 -1        19 0.00000E+00 0.00000E+00 0.00000E+00
 -1        20 0.00000E+00 0.00000E+00 5.00000E-02
 -1        21 1.00000E+00 0.00000E+00-5.00000E-02
 -1        22 1.00000E+00 0.00000E+00 0.00000E+00
 -1        23 1.00000E+00 0.00000E+00 5.00000E-02
 -1        24 2.00000E+00 0.00000E+00-5.00000E-02
 -1        25 2.00000E+00 0.00000E+00 0.00000E+00
 -1        26 2.00000E+00 0.00000E+00 5.00000E-02
 -1        27 0.00000E+00 1.00000E+00-5.00000E-02
 -1        28 0.00000E+00 1.00000E+00 0.00000E+00
 -1        29 0.00000E+00 1.00000E+00 5.00000E-02
 -1        30 1.00000E+00 1.00000E+00-5.00000E-02
 -1        31 1.00000E+00 1.00000E+00 0.00000E+00
 -1        32 1.00000E+00 1.00000E+00 5.00000E-02
 -1        33 2.00000E+00 1.00000E+00-5.00000E-02
 -1        34 2.00000E+00 1.00000E+00 0.00000E+00
 -1        35 2.00000E+00 1.00000E+00 5.00000E-02
 -1        36 5.00000E-01 0.00000E+00-5.00000E-02
 -1        38 5.00000E-01 0.00000E+00 5.00000E-02
 -1        39 1.50000E+00 0.00000E+00-5.00000E-02
 -1        41 1.50000E+00 0.00000E+00 5.00000E-02
 -1        42 0.00000E+00 5.00000E-01-5.00000E-02
 -1        44 0.00000E+00 5.00000E-01 5.00000E-02
 -1        45 1.00000E+00 5.00000E-01-5.00000E-02
 -1        47 1.00000E+00 5.00000E-01 5.00000E-02
 -1        48 2.00000E+00 5.00000E-01-5.00000E-02
 -1        50 2.00000E+00 5.00000E-01 5.00000E-02
 -1        51 5.00000E-01 1.00000E+00-5.00000E-02
 -1        53 5.00000E-01 1.00000E+00 5.00000E-02
 -1        54 1.50000E+00 1.00000E+00-5.00000E-02
 -1        56 1.50000E+00 1.00000E+00 5.00000E-02
 -1        57 1.00000E+00 0.00000E+00-5.00000E-02
 -1        58 1.00000E+00 0.00000E+00 0.00000E+00
 -1        59 1.00000E+00 0.00000E+00 5.00000E-02
 -1        60 1.00000E+00 1.00000E+00-5.00000E-02
 -1        61 1.00000E+00 1.00000E+00 0.00000E+00
 -1        62 1.00000E+00 1.00000E+00 5.00000E-02
 -1        63 1.00000E+00 5.00000E-01-5.00000E-02
 -1        65 1.00000E+00 5.00000E-01 5.00000E-02
 -3
    3C                             2                                     1
 -1         1    4    0    1
 -2        18        57        60        27        20        59        62        29        36        63
 -2        51        42        19        58        61        28        38        65        53        44
 -1         2    4    0    1
 -2        21        24        33        30        23        26        35        32        39        48
 -2        54        45        22        25        34        31        41        50        56        47
 -3
    1PSTEP                         1           1           1          
  100CL  101 1.000000000          40                     0    1           1
 -4  DISP        4    1
 -5  D1          1    2    1    0
 -5  D2          1    2    2    0
 -5  D3          1    2    3    0
 -5  ALL         1    2    0    0    1ALL
 -1        18 0.00000E+00 0.00000E+00 0.00000E+00
 -1        19 0.00000E+00 0.00000E+00 0.00000E+00
 -1        20 0.00000E+00 0.00000E+00 0.00000E+00
 -1        21 4.17100E-04-8.41744E-05 0.00000E+00
 -1        22 4.17100E-04-8.41744E-05 0.00000E+00
 -1        23 4.17100E-04-8.41744E-05 0.00000E+00
 -1        24 0.00000E+00 0.00000E+00 0.00000E+00
 -1        25 0.00000E+00 0.00000E+00 0.00000E+00
 -1        26 0.00000E+00 0.00000E+00 0.00000E+00
 -1        27 0.00000E+00 0.00000E+00 0.00000E+00
 -1        28 0.00000E+00 0.00000E+00 0.00000E+00
 -1        29 0.00000E+00 0.00000E+00 0.00000E+00
 -1        30 4.17100E-04 8.41744E-05 0.00000E+00
 -1        31 4.17100E-04 8.41744E-05 0.00000E+00
 -1        32 4.17100E-04 8.41744E-05 0.00000E+00
 -1        33 0.00000E+00 0.00000E+00 0.00000E+00
 -1        34 0.00000E+00 0.00000E+00 0.00000E+00
 -1        35 0.00000E+00 0.00000E+00 0.00000E+00
 -1        36-1.99531E-04-8.98332E-05 0.00000E+00
 -1        38-1.99531E-04-8.98332E-05 0.00000E+00
 -1        39 1.99531E-04-8.98332E-05 0.00000E+00
 -1        41 1.99531E-04-8.98332E-05 0.00000E+00
 -1        42 0.00000E+00 0.00000E+00 0.00000E+00
 -1        44 0.00000E+00 0.00000E+00 0.00000E+00
 -1        45 4.17100E-04 3.17224E-18 0.00000E+00
 -1        47 4.17100E-04 3.17224E-18 0.00000E+00
 -1        48 0.00000E+00 0.00000E+00 0.00000E+00
 -1        50 0.00000E+00 0.00000E+00 0.00000E+00
 -1        51-1.99531E-04 8.98332E-05 0.00000E+00
 -1        53-1.99531E-04 8.98332E-05 0.00000E+00
 -1        54 1.99531E-04 8.98332E-05 0.00000E+00
 -1        56 1.99531E-04 8.98332E-05 0.00000E+00
 -1        57-4.17100E-04-8.41744E-05 0.00000E+00
 -1        58-4.17100E-04-8.41744E-05 0.00000E+00
 -1        59-4.17100E-04-8.41744E-05 0.00000E+00
 -1        60-4.17100E-04 8.41744E-05 0.00000E+00
 -1        61-4.17100E-04 8.41744E-05 0.00000E+00
 -1        62-4.17100E-04 8.41744E-05 0.00000E+00
 -1        63-4.17100E-04 3.17224E-18 0.00000E+00
 -1        65-4.17100E-04 3.17224E-18 0.00000E+00
 -3
    1PSTEP                         2           1           1          
  100CL  101 1.000000000          40                     0    1           1
 -4  STRESS      6    1
 -5  SXX         1    4    1    1
 -5  SYY         1    4    2    2
 -5  SZZ         1    4    3    3
 -5  SXY         1    4    1    2
 -5  SYZ         1    4    2    3
 -5  SZX         1    4    3    1
 -1        18-1.07709E+02-4.61623E+01-4.61613E+01-2.22245E+01-4.62832E-14 7.35428E-14
 -1        19-1.07718E+02-4.61632E+01-4.61643E+01-2.22245E+01 6.88647E-15-7.26446E-14
 -1        20-1.07709E+02-4.61623E+01-4.61613E+01-2.22245E+01 3.02846E-14-2.04579E-13
 -1        21-1.07709E+02-7.31239E+00-3.45064E+01-8.62702E+00 3.76271E-14 1.00741E-12
 -1        22-1.07718E+02-7.31334E+00-3.45094E+01-8.62702E+00-1.93432E-17 5.34701E-14
 -1        23-1.07709E+02-7.31239E+00-3.45064E+01-8.62702E+00 4.84066E-14-7.44573E-13
 -1        24-1.07709E+02-4.61623E+01-4.61613E+01 2.22245E+01-2.71201E-13 6.48868E-13
 -1        25-1.07718E+02-4.61632E+01-4.61643E+01 2.22245E+01 4.82283E-15 8.52478E-15
 -1        26-1.07709E+02-4.61623E+01-4.61613E+01 2.22245E+01 2.84063E-13-7.19320E-13
 -1        27-1.07709E+02-4.61623E+01-4.61613E+01 2.22245E+01-1.22897E-14 9.73334E-14
 -1        28-1.07718E+02-4.61632E+01-4.61643E+01 2.22245E+01-9.17201E-15-1.50487E-13
 -1        29-1.07709E+02-4.61623E+01-4.61613E+01 2.22245E+01-9.12158E-15-2.11039E-13
 -1        30-1.07709E+02-7.31239E+00-3.45064E+01 8.62702E+00-2.06380E-13-4.02142E-13
 -1        31-1.07718E+02-7.31334E+00-3.45094E+01 8.62702E+00-7.55642E-15 4.99773E-14
 -1        32-1.07709E+02-7.31239E+00-3.45064E+01 8.62702E+00 1.24486E-13 2.82700E-13
 -1        33-1.07709E+02-4.61623E+01-4.61613E+01-2.22245E+01 2.52763E-13 5.59620E-13
 -1        34-1.07718E+02-4.61632E+01-4.61643E+01-2.22245E+01-2.71368E-15-6.42925E-14
 -1        35-1.07709E+02-4.61623E+01-4.61613E+01-2.22245E+01-2.49717E-13-4.82065E-13
 -1        36-9.61485E+01 2.56783E-01-2.87675E+01-6.79873E+00 2.81555E-14 8.27244E-14
 -1        38-9.61485E+01 2.56783E-01-2.87675E+01-6.79873E+00-7.44739E-15 3.37792E-14
 -1        39-9.61485E+01 2.56783E-01-2.87675E+01 6.79873E+00-9.32895E-15 2.31911E-13
 -1        41-9.61485E+01 2.56783E-01-2.87675E+01 6.79873E+00 4.90793E-14-2.23180E-13
 -1        42-1.07718E+02-4.61632E+01-4.61643E+01 9.78106E-14 1.16661E-14-4.32231E-14
 -1        44-1.07718E+02-4.61632E+01-4.61643E+01 1.01807E-13-1.59835E-14 5.74874E-14
 -1        45-1.07718E+02-7.31334E+00-3.45094E+01-4.19220E-13-5.12770E-14 5.64244E-13
 -1        47-1.07718E+02-7.31334E+00-3.45094E+01-4.14779E-13 5.51627E-14-6.00974E-13
 -1        48-1.07718E+02-4.61632E+01-4.61643E+01-6.27498E-13-1.64470E-14 3.02509E-13
 -1        50-1.07718E+02-4.61632E+01-4.61643E+01-6.28830E-13 1.70165E-14-2.20532E-13
 -1        51-9.61485E+01 2.56783E-01-2.87675E+01 6.79873E+00-1.33454E-13 2.43597E-14
 -1        53-9.61485E+01 2.56783E-01-2.87675E+01 6.79873E+00 1.30139E-13 1.50555E-13
 -1        54-9.61485E+01 2.56783E-01-2.87675E+01-6.79873E+00-3.31196E-14 3.26071E-13
 -1        56-9.61485E+01 2.56783E-01-2.87675E+01-6.79873E+00 1.06910E-14-3.04150E-13
 -1        57-1.07709E+02-7.31239E+00-3.45064E+01 8.62702E+00-1.41409E-13-1.50429E-13
 -1        58-1.07718E+02-7.31334E+00-3.45094E+01 8.62702E+00 1.65003E-14 8.45673E-14
 -1        59-1.07709E+02-7.31239E+00-3.45064E+01 8.62702E+00 2.65553E-13 1.83377E-13
 -1        60-1.07709E+02-7.31239E+00-3.45064E+01-8.62702E+00 6.12167E-14-3.21085E-13
 -1        61-1.07718E+02-7.31334E+00-3.45094E+01-8.62702E+00 5.00225E-15-5.74165E-16
 -1        62-1.07709E+02-7.31239E+00-3.45064E+01-8.62702E+00-7.62733E-14-8.10844E-15
 -1        63-1.07718E+02-7.31334E+00-3.45094E+01-1.28786E-13-2.09300E-14-1.52602E-13
 -1        65-1.07718E+02-7.31334E+00-3.45094E+01-1.29008E-13 4.62888E-14-4.02168E-13
 -3
 9999
