    1C
    1UUSER                                                              
    1UDATE              25.january.2020                                 
    1UTIME              14:53:40                                        
    1UHOST                                                              
    1UPGM               CalculiX                                        
    1UVERSION           Version 2.16                             
    1UCOMPILETIME       Tue  7 Jan 19:57:43 CET 2020                    
    1UDIR                                                               
    1UDBN                                                               
    1UMAT    1EL                                                        
    2C                            41                                     1
 -1         1 0.00000E+00 0.00000E+00 0.00000E+00
 -1         2 1.00000E-01 0.00000E+00 0.00000E+00
 -1         3 5.00000E-02 0.00000E+00 0.00000E+00
 -1         4 2.00000E-01 0.00000E+00 0.00000E+00
 -1         5 1.50000E-01 0.00000E+00 0.00000E+00
 -1         6 3.00000E-01 0.00000E+00 0.00000E+00
 -1         7 2.50000E-01 0.00000E+00 0.00000E+00
 -1         8 4.00000E-01 0.00000E+00 0.00000E+00
 -1         9 3.50000E-01 0.00000E+00 0.00000E+00
 -1        10 5.00000E-01 0.00000E+00 0.00000E+00
 -1        11 4.50000E-01 0.00000E+00 0.00000E+00
 -1        12 6.00000E-01 0.00000E+00 0.00000E+00
 -1        13 5.50000E-01 0.00000E+00 0.00000E+00
 -1        14 7.00000E-01 0.00000E+00 0.00000E+00
 -1        15 6.50000E-01 0.00000E+00 0.00000E+00
 -1        16 8.00000E-01 0.00000E+00 0.00000E+00
 -1        17 7.50000E-01 0.00000E+00 0.00000E+00
 -1        18 9.00000E-01 0.00000E+00 0.00000E+00
 -1        19 8.50000E-01 0.00000E+00 0.00000E+00
 -1        20 1.00000E+00 0.00000E+00 0.00000E+00
 -1        21 9.50000E-01 0.00000E+00 0.00000E+00
 -1        22 1.10000E+00 0.00000E+00 0.00000E+00
 -1        23 1.05000E+00 0.00000E+00 0.00000E+00
 -1        24 1.20000E+00 0.00000E+00 0.00000E+00
 -1        25 1.15000E+00 0.00000E+00 0.00000E+00
 -1        26 1.30000E+00 0.00000E+00 0.00000E+00
 -1        27 1.25000E+00 0.00000E+00 0.00000E+00
 -1        28 1.40000E+00 0.00000E+00 0.00000E+00
 -1        29 1.35000E+00 0.00000E+00 0.00000E+00
 -1        30 1.50000E+00 0.00000E+00 0.00000E+00
 -1        31 1.45000E+00 0.00000E+00 0.00000E+00
 -1        32 1.60000E+00 0.00000E+00 0.00000E+00
 -1        33 1.55000E+00 0.00000E+00 0.00000E+00
 -1        34 1.70000E+00 0.00000E+00 0.00000E+00
 -1        35 1.65000E+00 0.00000E+00 0.00000E+00
 -1        36 1.80000E+00 0.00000E+00 0.00000E+00
 -1        37 1.75000E+00 0.00000E+00 0.00000E+00
 -1        38 1.90000E+00 0.00000E+00 0.00000E+00
 -1        39 1.85000E+00 0.00000E+00 0.00000E+00
 -1        40 2.00000E+00 0.00000E+00 0.00000E+00
 -1        41 1.95000E+00 0.00000E+00 0.00000E+00
 -3
    3C                            20                                     1
 -1         1   12    0    1
 -2         1         2         3
 -1         2   12    0    1
 -2         2         4         5
 -1         3   12    0    1
 -2         4         6         7
 -1         4   12    0    1
 -2         6         8         9
 -1         5   12    0    1
 -2         8        10        11
 -1         6   12    0    1
 -2        10        12        13
 -1         7   12    0    1
 -2        12        14        15
 -1         8   12    0    1
 -2        14        16        17
 -1         9   12    0    1
 -2        16        18        19
 -1        10   12    0    1
 -2        18        20        21
 -1        11   12    0    1
 -2        20        22        23
 -1        12   12    0    1
 -2        22        24        25
 -1        13   12    0    1
 -2        24        26        27
 -1        14   12    0    1
 -2        26        28        29
 -1        15   12    0    1
 -2        28        30        31
 -1        16   12    0    1
 -2        30        32        33
 -1        17   12    0    1
 -2        32        34        35
 -1        18   12    0    1
 -2        34        36        37
 -1        19   12    0    1
 -2        36        38        39
 -1        20   12    0    1
 -2        38        40        41
 -3
    1PSTEP                         1           1           1          
  100CL  101 1.000000000          41                     0    1           1
 -4  DISP        4    1
 -5  D1          1    2    1    0
 -5  D2          1    2    2    0
 -5  D3          1    2    3    0
 -5  ALL         1    2    0    0    1ALL
 -1         1-6.77626E-21 0.00000E+00-2.64698E-23
 -1         2-1.55009E-06 6.21853E-17 5.57387E-04
 -1         3-7.78932E-07 3.12988E-17 2.79393E-04
 -1         4-3.03896E-06 1.21210E-16 1.10361E-03
 -1         5-2.30593E-06 9.22315E-17 8.32594E-04
 -1         6-4.40910E-06 1.74693E-16 1.62752E-03
 -1         7-3.74226E-06 1.48870E-16 1.36906E-03
 -1         8-5.61051E-06 2.19975E-16 2.11795E-03
 -1         9-5.03369E-06 1.98358E-16 1.87762E-03
 -1        10-6.60437E-06 2.56402E-16 2.56373E-03
 -1        11-6.13534E-06 2.39344E-16 2.34711E-03
 -1        12-7.36682E-06 2.84179E-16 2.95371E-03
 -1        13-7.01542E-06 2.71390E-16 2.76639E-03
 -1        14-7.89267E-06 3.03298E-16 3.27672E-03
 -1        15-7.65892E-06 2.94717E-16 3.12429E-03
 -1        16-8.19917E-06 3.14390E-16 3.52164E-03
 -1        17-8.07140E-06 3.09798E-16 3.40964E-03
 -1        18-8.32971E-06 3.18636E-16 3.67717E-03
 -1        19-8.28273E-06 3.17364E-16 3.61126E-03
 -1        20-8.35766E-06 3.16119E-16 3.73266E-03
 -1        21-8.35079E-06 3.18201E-16 3.71814E-03
 -1        22-8.38561E-06 3.07249E-16 3.67717E-03
 -1        23-8.36453E-06 3.12442E-16 3.71814E-03
 -1        24-8.51615E-06 2.92828E-16 3.52164E-03
 -1        25-8.43258E-06 3.00755E-16 3.61126E-03
 -1        26-8.82265E-06 2.71911E-16 3.27672E-03
 -1        27-8.64391E-06 2.83084E-16 3.40964E-03
 -1        28-9.34850E-06 2.46495E-16 2.95371E-03
 -1        29-9.05640E-06 2.59728E-16 3.12429E-03
 -1        30-1.01109E-05 2.15900E-16 2.56373E-03
 -1        31-9.69990E-06 2.31832E-16 2.76639E-03
 -1        32-1.11048E-05 1.80913E-16 2.11795E-03
 -1        33-1.05800E-05 1.98946E-16 2.34711E-03
 -1        34-1.23062E-05 1.41027E-16 1.62752E-03
 -1        35-1.16816E-05 1.61729E-16 1.87762E-03
 -1        36-1.36764E-05 9.58956E-17 1.10361E-03
 -1        37-1.29731E-05 1.18849E-16 1.36906E-03
 -1        38-1.51652E-05 4.89396E-17 5.57387E-04
 -1        39-1.44094E-05 7.27232E-17 8.32594E-04
 -1        40-1.67153E-05 0.00000E+00 2.64698E-23
 -1        41-1.59364E-05 2.45423E-17 2.79393E-04
 -3
    1PSTEP                         2           1           1          
  100CL  101 1.000000000          41                     0    1           1
 -4  STRESS      6    1
 -5  SXX         1    4    1    1
 -5  SYY         1    4    2    2
 -5  SZZ         1    4    3    3
 -5  SXY         1    4    1    2
 -5  SYZ         1    4    2    3
 -5  SZX         1    4    3    1
 -1         1 1.33325E-15 7.72391E-03 2.87858E-05-1.10368E-16 2.29249E-05 1.27741E-17
 -1         2 6.62708E-16 7.73975E-03 2.94363E-05-9.94501E-17 4.97874E-04-5.93601E-17
 -1         3 9.97979E-16 7.73183E-03 2.91110E-05-1.04909E-16 2.60399E-04-2.32930E-17
 -1         4 5.89552E-16 7.75707E-03 3.14105E-05-1.04338E-16 9.99844E-04-1.09179E-16
 -1         5 6.26130E-16 7.74841E-03 3.04234E-05-1.01894E-16 7.48859E-04-8.42696E-17
 -1         6 3.33462E-16 7.75864E-03 3.47083E-05-7.72375E-17 1.49995E-03-1.10033E-16
 -1         7 4.61507E-16 7.75786E-03 3.30594E-05-9.07875E-17 1.24990E-03-1.09606E-16
 -1         8 7.73400E-17 7.75887E-03 3.93517E-05-7.48811E-17 1.99998E-03-1.50867E-16
 -1         9 2.05401E-16 7.75876E-03 3.70300E-05-7.60593E-17 1.74997E-03-1.30450E-16
 -1        10-7.24393E-16 7.75866E-03 4.53529E-05-7.46897E-17 2.49998E-03-2.14049E-16
 -1        11-3.23526E-16 7.75876E-03 4.23523E-05-7.47854E-17 2.24998E-03-1.82458E-16
 -1        12-6.33889E-16 7.75971E-03 5.27475E-05-2.76709E-17 2.99998E-03-1.12350E-16
 -1        13-6.79141E-16 7.75918E-03 4.90502E-05-5.11803E-17 2.74998E-03-1.63200E-16
 -1        14-1.31390E-16 7.75534E-03 6.14799E-05-3.15977E-17 3.49999E-03-1.62576E-16
 -1        15-3.82640E-16 7.75752E-03 5.71137E-05-2.96343E-17 3.24998E-03-1.37463E-16
 -1        16 1.06658E-16 7.77087E-03 7.18072E-05-1.42030E-17 4.00022E-03-1.51788E-16
 -1        17-1.23658E-17 7.76310E-03 6.66435E-05-2.29004E-17 3.75011E-03-1.57182E-16
 -1        18-3.78154E-16 7.68924E-03 8.36896E-05-2.43386E-17 4.50119E-03-1.04734E-16
 -1        19-1.35748E-16 7.73006E-03 7.77484E-05-1.92708E-17 4.25071E-03-1.28261E-16
 -1        20-1.95682E-16-5.42384E-15 8.50633E-05-3.30821E-17 4.97871E-03-1.04029E-16
 -1        21-2.86918E-16 3.84462E-03 8.43764E-05-2.87104E-17 4.73995E-03-1.04382E-16
 -1        22-1.05326E-16-7.68924E-03 8.36896E-05-7.02868E-18 4.50119E-03-1.34766E-16
 -1        23-1.50504E-16-3.84462E-03 8.43764E-05-2.00554E-17 4.73995E-03-1.19398E-16
 -1        24-6.87452E-17-7.77087E-03 7.18072E-05-1.22295E-17 4.00022E-03-1.13841E-16
 -1        25-8.70358E-17-7.73006E-03 7.77484E-05-9.62907E-18 4.25071E-03-1.24304E-16
 -1        26-3.76072E-16-7.75534E-03 6.14799E-05-4.55196E-18 3.49999E-03-1.11835E-16
 -1        27-2.22408E-16-7.76310E-03 6.66435E-05-8.39071E-18 3.75011E-03-1.12838E-16
 -1        28-1.05433E-15-7.75971E-03 5.27475E-05 4.52011E-17 2.99998E-03-1.32191E-16
 -1        29-7.15199E-16-7.75752E-03 5.71137E-05 2.03246E-17 3.24998E-03-1.22013E-16
 -1        30-1.13908E-15-7.75866E-03 4.53529E-05 4.55890E-17 2.49998E-03-1.39781E-16
 -1        31-1.09670E-15-7.75918E-03 4.90502E-05 4.53950E-17 2.74998E-03-1.35986E-16
 -1        32-5.64864E-16-7.75887E-03 3.93517E-05 7.54012E-17 1.99998E-03-6.07153E-17
 -1        33-8.51971E-16-7.75876E-03 4.23523E-05 6.04951E-17 2.24998E-03-1.00248E-16
 -1        34-4.67265E-16-7.75864E-03 3.47083E-05 1.27421E-16 1.49995E-03-1.30755E-16
 -1        35-5.16065E-16-7.75876E-03 3.70300E-05 1.01411E-16 1.74997E-03-9.57351E-17
 -1        36-8.19154E-16-7.75707E-03 3.14105E-05 1.50609E-16 9.99844E-04-1.23206E-16
 -1        37-6.43209E-16-7.75786E-03 3.30594E-05 1.39015E-16 1.24990E-03-1.26980E-16
 -1        38-6.31585E-16-7.73975E-03 2.94363E-05 1.65822E-16 4.97874E-04-7.23163E-17
 -1        39-7.25369E-16-7.74841E-03 3.04234E-05 1.58216E-16 7.48859E-04-9.77612E-17
 -1        40-8.86335E-18-7.72391E-03 2.87858E-05 1.61926E-16 2.29249E-05 1.70038E-17
 -1        41-3.20224E-16-7.73183E-03 2.91110E-05 1.63874E-16 2.60399E-04-2.76563E-17
 -3
 9999
