    1C
    1UUSER                                                              
    1UDATE              25.january.2020                                 
    1UTIME              14:54:18                                        
    1UHOST                                                              
    1UPGM               CalculiX                                        
    1UVERSION           Version 2.16                             
    1UCOMPILETIME       Tue  7 Jan 19:57:43 CET 2020                    
    1UDIR                                                               
    1UDBN                                                               
    1UMAT    1EL                                                        
    2C                            18                                     1
 -1        22-7.45058E-09-7.45058E-09-5.00000E-03
 -1        24-7.45058E-09-7.45058E-09 5.00000E-03
 -1        25 5.00000E-01-7.45058E-09-5.00000E-03
 -1        27 5.00000E-01-7.45058E-09 5.00000E-03
 -1        28 5.00000E-01 5.00000E-01-5.00000E-03
 -1        30 5.00000E-01 5.00000E-01 5.00000E-03
 -1        31-7.45058E-09 5.00000E-01-5.00000E-03
 -1        33-7.45058E-09 5.00000E-01 5.00000E-03
 -1        34 5.00000E-01 1.00000E+00-5.00000E-03
 -1        36 5.00000E-01 1.00000E+00 5.00000E-03
 -1        37-7.45058E-09 1.00000E+00-5.00000E-03
 -1        39-7.45058E-09 1.00000E+00 5.00000E-03
 -1        40 1.00000E+00-7.45058E-09-5.00000E-03
 -1        42 1.00000E+00-7.45058E-09 5.00000E-03
 -1        43 1.00000E+00 5.00000E-01-5.00000E-03
 -1        45 1.00000E+00 5.00000E-01 5.00000E-03
 -1        46 1.00000E+00 1.00000E+00-5.00000E-03
 -1        48 1.00000E+00 1.00000E+00 5.00000E-03
 -3
    3C                             4                                     1
 -1         1    1    0    1
 -2        22        25        28        31        24        27        30        33
 -1         2    1    0    1
 -2        31        28        34        37        33        30        36        39
 -1         3    1    0    1
 -2        25        40        43        28        27        42        45        30
 -1         4    1    0    1
 -2        28        43        46        34        30        45        48        36
 -3
    1PSTEP                         1           1           1          
  100CL  101 1.000000000          18                     0    1           1
 -4  DISP        4    1
 -5  D1          1    2    1    0
 -5  D2          1    2    2    0
 -5  D3          1    2    3    0
 -5  ALL         1    2    0    0    1ALL
 -1        22-1.62026E-17-1.12030E-17 2.41885E-07
 -1        24 1.62026E-17 1.12030E-17-2.41885E-07
 -1        25 8.48249E-17 2.43761E-04-4.89396E-07
 -1        27 5.73259E-17 2.43761E-04 4.89396E-07
 -1        28 4.61963E-12-1.81618E-12 1.37068E-06
 -1        30 4.61960E-12-1.81618E-12-1.37068E-06
 -1        31-6.20027E-04-9.33099E-18 2.10197E-06
 -1        33-6.20027E-04-1.04562E-17-2.10197E-06
 -1        34 9.10855E-17-2.43761E-04-4.89396E-07
 -1        36 6.38751E-17-2.43761E-04 4.89396E-07
 -1        37-1.54659E-17 1.01057E-17 2.41885E-07
 -1        39 1.54659E-17-1.01057E-17-2.41885E-07
 -1        40-1.12753E-17-1.39582E-17 2.41885E-07
 -1        42 1.12753E-17 1.39582E-17-2.41885E-07
 -1        43 6.20027E-04-1.27589E-17 2.10197E-06
 -1        45 6.20027E-04-1.38909E-17-2.10197E-06
 -1        46-1.17298E-17 1.28383E-17 2.41885E-07
 -1        48 1.17298E-17-1.28383E-17-2.41885E-07
 -3
    1PSTEP                         2           1           1          
  100CL  101 1.000000000          18                     0    1           1
 -4  STRESS      6    1
 -5  SXX         1    4    1    1
 -5  SYY         1    4    2    2
 -5  SZZ         1    4    3    3
 -5  SXY         1    4    1    2
 -5  SYZ         1    4    2    3
 -5  SZX         1    4    3    1
 -1        22-4.00249E+00 3.78624E+01-4.84842E-12-3.03895E+01-5.49942E-12 4.69011E-13
 -1        24-4.00249E+00 3.78624E+01-4.58252E-12-3.03895E+01-5.47142E-12 3.65958E-13
 -1        25-4.00249E+00-6.45164E+01-7.34663E-13 2.26429E-07 7.55744E-13 3.95809E-13
 -1        27-4.00249E+00-6.45164E+01-8.20130E-13 2.26429E-07 6.59070E-13 4.17181E-13
 -1        28 2.56407E+02-6.45164E+01 6.84847E-14 8.34888E-14 1.04506E-14-5.71627E-13
 -1        30 2.56407E+02-6.45164E+01 4.73880E-14 1.11910E-13 9.78346E-16-6.69019E-13
 -1        31 2.56407E+02 3.78624E+01 6.63105E-12 2.26416E-07 1.56063E-13 9.49644E-13
 -1        33 2.56407E+02 3.78624E+01 6.86027E-12 2.26416E-07 1.93469E-13-5.06923E-14
 -1        34-4.00249E+00-6.45164E+01 6.81577E-13-2.26429E-07-4.20707E-15 9.62432E-13
 -1        36-4.00249E+00-6.45164E+01 7.28485E-13-2.26429E-07 7.35229E-14 8.51823E-13
 -1        37-4.00249E+00 3.78624E+01-7.24719E-12 3.03895E+01 4.58077E-12-1.82800E-12
 -1        39-4.00249E+00 3.78624E+01-6.73764E-12 3.03895E+01 4.62740E-12-1.15097E-12
 -1        40-4.00249E+00 3.78624E+01 6.85638E-12 3.03895E+01 4.20815E-12-1.69708E-12
 -1        42-4.00249E+00 3.78624E+01 6.49466E-12 3.03895E+01 3.92680E-12-1.08974E-12
 -1        43 2.56407E+02 3.78624E+01-6.71404E-12-2.26416E-07 5.20069E-14 1.45559E-12
 -1        45 2.56407E+02 3.78624E+01-6.97316E-12-2.26416E-07-6.21702E-14 2.51510E-13
 -1        46-4.00249E+00 3.78624E+01 5.33455E-12-3.03895E+01-4.63004E-12-3.05028E-13
 -1        48-4.00249E+00 3.78624E+01 4.95367E-12-3.03895E+01-4.57687E-12-5.87875E-13
 -3
    1PSTEP                         3           1           1          
  100CL  101 1.000000000          18                     0    1           1
 -4  ERROR       1    1
 -5  STR(%)      1    1    0    0
 -1        22 8.09120E+01
 -1        24 8.09120E+01
 -1        25 8.09120E+01
 -1        27 8.09120E+01
 -1        28 8.09120E+01
 -1        30 8.09120E+01
 -1        31 8.09120E+01
 -1        33 8.09120E+01
 -1        34 8.09120E+01
 -1        36 8.09120E+01
 -1        37 8.09120E+01
 -1        39 8.09120E+01
 -1        40 8.09120E+01
 -1        42 8.09120E+01
 -1        43 8.09120E+01
 -1        45 8.09120E+01
 -1        46 8.09120E+01
 -1        48 8.09120E+01
 -3
    1PSTEP                         1           1           2          
  100CL  102 0.00000E+00          18                     3    2           1
 -4  NORM        4    1
 -5  NORMX       1    2	 1    0
 -5  NORMY       1    2	 2    0
 -5  NORMZ       1    2	 3    0
 -5  ALL         1    2	 0    0    1ALL
 -1        22 0.00000E+00 0.00000E+00-1.00000E+00
 -1        24 0.00000E+00 0.00000E+00 1.00000E+00
 -1        25 0.00000E+00 0.00000E+00-1.00000E+00
 -1        27 0.00000E+00 0.00000E+00 1.00000E+00
 -1        28 0.00000E+00 0.00000E+00-1.00000E+00
 -1        30 0.00000E+00 0.00000E+00-1.00000E+00
 -1        31 0.00000E+00 0.00000E+00-1.00000E+00
 -1        33 0.00000E+00 0.00000E+00 1.00000E+00
 -1        34 0.00000E+00 0.00000E+00-1.00000E+00
 -1        36 0.00000E+00 0.00000E+00 1.00000E+00
 -1        37 0.00000E+00 0.00000E+00-1.00000E+00
 -1        39 0.00000E+00 0.00000E+00 1.00000E+00
 -1        40 0.00000E+00 0.00000E+00-1.00000E+00
 -1        42 0.00000E+00 0.00000E+00 1.00000E+00
 -1        43 0.00000E+00 0.00000E+00-1.00000E+00
 -1        45 0.00000E+00 0.00000E+00 1.00000E+00
 -1        46 0.00000E+00 0.00000E+00-1.00000E+00
 -1        48 0.00000E+00 0.00000E+00 1.00000E+00
 -3
    1PSTEP                         2           1           2          
  100CL  103 0.00000E+00          18                     3    3           1
 -4  SENENER     2    1
 -5  DFDN        1    1    1    0
 -5  DFDNFIL     1    1    2    0
 -1        22 0.00000E+00 0.00000E+00
 -1        24 0.00000E+00 0.00000E+00
 -1        25 0.00000E+00 0.00000E+00
 -1        27 0.00000E+00 0.00000E+00
 -1        28 2.53980E-01 1.00000E+00
 -1        30 2.53980E-01 1.00000E+00
 -1        31 0.00000E+00 0.00000E+00
 -1        33 0.00000E+00 0.00000E+00
 -1        34 0.00000E+00 0.00000E+00
 -1        36 0.00000E+00 0.00000E+00
 -1        37 0.00000E+00 0.00000E+00
 -1        39 0.00000E+00 0.00000E+00
 -1        40 0.00000E+00 0.00000E+00
 -1        42 0.00000E+00 0.00000E+00
 -1        43 0.00000E+00 0.00000E+00
 -1        45 0.00000E+00 0.00000E+00
 -1        46 0.00000E+00 0.00000E+00
 -1        48 0.00000E+00 0.00000E+00
 -3
 9999
