    1C
    1UUSER                                                              
    1UDATE              25.january.2020                                 
    1UTIME              14:54:20                                        
    1UHOST                                                              
    1UPGM               CalculiX                                        
    1UVERSION           Version 2.16                             
    1UCOMPILETIME       Tue  7 Jan 19:57:43 CET 2020                    
    1UDIR                                                               
    1UDBN                                                               
    1UMAT    1ALUM                                                      
    2C                            21                                     1
 -1         1 0.00000E+00 0.00000E+00 0.00000E+00
 -1         2 0.00000E+00 0.00000E+00 5.00000E-01
 -1         3 0.00000E+00 0.00000E+00 1.00000E+00
 -1         4 0.00000E+00 0.00000E+00 1.50000E+00
 -1         5 0.00000E+00 0.00000E+00 2.00000E+00
 -1         6 0.00000E+00 0.00000E+00 2.50000E+00
 -1         7 0.00000E+00 0.00000E+00 3.00000E+00
 -1         8 0.00000E+00 0.00000E+00 3.50000E+00
 -1         9 0.00000E+00 0.00000E+00 4.00000E+00
 -1        10 0.00000E+00 0.00000E+00 4.50000E+00
 -1        11 0.00000E+00 0.00000E+00 5.00000E+00
 -1        12 0.00000E+00 0.00000E+00 5.50000E+00
 -1        13 0.00000E+00 0.00000E+00 6.00000E+00
 -1        14 0.00000E+00 0.00000E+00 6.50000E+00
 -1        15 0.00000E+00 0.00000E+00 7.00000E+00
 -1        16 0.00000E+00 0.00000E+00 7.50000E+00
 -1        17 0.00000E+00 0.00000E+00 8.00000E+00
 -1        18 0.00000E+00 0.00000E+00 8.50000E+00
 -1        19 0.00000E+00 0.00000E+00 9.00000E+00
 -1        20 0.00000E+00 0.00000E+00 9.50000E+00
 -1        21 0.00000E+00 0.00000E+00 1.00000E+01
 -3
    3C                            10                                     1
 -1         1   12    0    1
 -2         1         3         2
 -1         2   12    0    1
 -2         3         5         4
 -1         3   12    0    1
 -2         5         7         6
 -1         4   12    0    1
 -2         7         9         8
 -1         5   12    0    1
 -2         9        11        10
 -1         6   12    0    1
 -2        11        13        12
 -1         7   12    0    1
 -2        13        15        14
 -1         8   12    0    1
 -2        15        17        16
 -1         9   12    0    1
 -2        17        19        18
 -1        10   12    0    1
 -2        19        21        20
 -3
    1PSTEP                         1           1           1          
  100CL  101 1.000000000          21                     0    1           1
 -4  DISP        4    1
 -5  D1          1    2    1    0
 -5  D2          1    2    2    0
 -5  D3          1    2    3    0
 -5  ALL         1    2    0    0    1ALL
 -1         1 9.04305E-01-3.16136E-10-2.60894E-14
 -1         2 8.36284E-01-2.93330E-10-2.61497E-14
 -1         3 7.68606E-01-2.70570E-10-2.57119E-14
 -1         4 7.01615E-01-2.47921E-10-2.49393E-14
 -1         5 6.35653E-01-2.25519E-10-2.44399E-14
 -1         6 5.71062E-01-2.03503E-10-2.27600E-14
 -1         7 5.08185E-01-1.81972E-10-2.15841E-14
 -1         8 4.47367E-01-1.61021E-10-2.03028E-14
 -1         9 3.88949E-01-1.40757E-10-1.89894E-14
 -1        10 3.33274E-01-1.21291E-10-1.72904E-14
 -1        11 2.80686E-01-1.02739E-10-1.58031E-14
 -1        12 2.31528E-01-8.52139E-11-1.41844E-14
 -1        13 1.86140E-01-6.88640E-11-1.28055E-14
 -1        14 1.44866E-01-5.38512E-11-1.12488E-14
 -1        15 1.08056E-01-4.03461E-11-9.73917E-15
 -1        16 7.60550E-02-2.85153E-11-8.08598E-15
 -1        17 4.91742E-02-1.85080E-11-6.45133E-15
 -1        18 2.77485E-02-1.04821E-11-4.84291E-15
 -1        19 1.22427E-02-4.64143E-12-3.23352E-15
 -1        20 3.03121E-03-1.15382E-12-1.61411E-15
 -1        21 0.00000E+00 3.38813E-21 2.46519E-32
 -3
    1PSTEP                         2           1           1          
  100CL  101 1.000000000          21                     0    1           1
 -4  STRESS      6    1
 -5  SXX         1    4    1    1
 -5  SYY         1    4    2    2
 -5  SZZ         1    4    3    3
 -5  SXY         1    4    1    2
 -5  SYZ         1    4    2    3
 -5  SZX         1    4    3    1
 -1         1-9.99960E-01 9.39245E-11-4.99288E-11-5.38079E-11-3.95883E-12 2.11347E-04
 -1         2-9.99960E-01 1.93993E-10 2.56318E-11-5.15784E-11 7.11868E-11 5.00138E-01
 -1         3-9.99960E-01 2.94062E-10 1.01192E-10-4.93490E-11 1.46332E-10 1.00006E+00
 -1         4-9.99960E-01 3.26988E-10 1.09002E-10-1.02340E-11 3.59053E-10 1.50002E+00
 -1         5-9.99960E-01 3.59914E-10 1.16811E-10 2.88810E-11 5.71774E-10 1.99997E+00
 -1         6-9.99960E-01 3.33079E-10 1.57890E-10 1.26898E-11 7.07118E-10 2.49997E+00
 -1         7-9.99960E-01 3.06244E-10 1.98969E-10-3.50142E-12 8.42462E-10 2.99998E+00
 -1         8-9.99960E-01 3.18134E-10 1.86535E-10-3.58662E-11 1.00159E-09 3.49999E+00
 -1         9-9.99960E-01 3.30025E-10 1.74100E-10-6.82309E-11 1.16071E-09 3.99999E+00
 -1        10-9.99960E-01 3.45122E-10 1.98654E-10-6.90607E-11 1.32651E-09 4.49995E+00
 -1        11-9.99960E-01 3.60219E-10 2.23208E-10-6.98905E-11 1.49231E-09 4.99992E+00
 -1        12-9.99960E-01 4.28121E-10 2.07575E-10-6.11909E-11 1.72053E-09 5.50001E+00
 -1        13-9.99960E-01 4.96024E-10 1.91942E-10-5.24914E-11 1.94876E-09 6.00010E+00
 -1        14-9.99960E-01 4.85320E-10 2.15775E-10-5.53045E-11 2.19254E-09 6.49987E+00
 -1        15-9.99960E-01 4.74617E-10 2.39608E-10-5.81177E-11 2.43632E-09 6.99964E+00
 -1        16-9.99960E-01 4.70692E-10 2.20711E-10-6.13087E-11 2.67200E-09 7.50001E+00
 -1        17-9.99960E-01 4.66768E-10 2.01814E-10-6.44997E-11 2.90768E-09 8.00039E+00
 -1        18-9.99960E-01 4.58969E-10 2.06531E-10-6.93196E-11 3.13563E-09 8.50078E+00
 -1        19-9.99960E-01 4.51169E-10 2.11248E-10-7.41395E-11 3.36357E-09 9.00118E+00
 -1        20-9.99960E-01 4.52368E-10 2.12957E-10-7.43799E-11 3.58971E-09 9.50081E+00
 -1        21-9.99960E-01 4.53567E-10 2.14666E-10-7.46204E-11 3.81584E-09 1.00004E+01
 -3
    1PSTEP                         3           1           1          
  100CL  101 1.000000000          21                     0    1           1
 -4  ERROR       1    1
 -5  STR(%)      1    1    0    0
 -1         1 5.73361E+01
 -1         2 6.08273E+01
 -1         3 6.43185E+01
 -1         4 6.44132E+01
 -1         5 6.45079E+01
 -1         6 6.45324E+01
 -1         7 6.45568E+01
 -1         8 6.45641E+01
 -1         9 6.45715E+01
 -1        10 6.45755E+01
 -1        11 6.45795E+01
 -1        12 6.45804E+01
 -1        13 6.45814E+01
 -1        14 6.45843E+01
 -1        15 6.45872E+01
 -1        16 6.45872E+01
 -1        17 6.45872E+01
 -1        18 6.45935E+01
 -1        19 6.45998E+01
 -1        20 6.45998E+01
 -1        21 6.45998E+01
 -3
 9999
